LAMMPS data file via write_data, version 2 Apr 2025, timestep = 1000000, units = real

1200 atoms
2 atom types
1180 bonds
2 bond types
2280 angles
3 angle types
3300 dihedrals
3 dihedral types

-0.6207351367041731 22.415078668707174 xlo xhi
-0.6207351367041731 22.415078668707174 ylo yhi
-0.6207351367041731 22.415078668707174 zlo zhi

Masses

1 12.011
2 1.008

Pair Coeffs # lj/cut/coul/long

1 0.066 3.5
2 0.03 2.5

Bond Coeffs # harmonic

1 340 1.09
2 268 1.529

Angle Coeffs # harmonic

1 33 107.8
2 37.5 110.7
3 58.35 112.7

Dihedral Coeffs # opls

1 0 -0 0.15 -0
2 0 -0 0.15 -0
3 0.65 -0.025 0.1 -0

Atoms # full

718 12 1 -0.12 8.298641675208014 4.891329169104126 2.835019120344866 0 1 0
36 1 2 0.06 0.5756146469774601 0.35573997749121544 -0.31246673855847196 0 1 0
318 6 2 0.06 10.135408182811526 0.35270190632536824 0.07470672529741251 0 0 0
609 11 2 0.06 0.26297539620404253 5.515990181382706 5.659369821418786 0 0 0
275 5 2 0.06 7.696520438868582 9.837380928420306 5.415476429370745 0 0 1
602 11 2 0.06 2.552153381652293 7.671401980455874 3.719259392863033 0 0 0
1070 18 2 0.06 9.006447767355578 7.649420106647527 0.0821334947508664 1 1 0
331 6 1 -0.12 9.16557497146208 0.1606797780536705 5.4386507926837035 0 0 0
1143 20 2 0.06 9.123954808734089 5.944827840502608 6.574872375095781 0 0 0
717 12 2 0.06 6.113480947571822 4.717506047538428 2.9100600827772194 0 1 0
615 11 2 0.06 -0.5758907298543501 3.372399390891922 6.692358029606963 0 0 0
1051 18 1 -0.12 2.8143402091421295 3.545992530926764 1.573699876647443 1 1 0
280 5 1 -0.12 5.74092329821826 8.320112589373014 7.011892447844635 0 0 1
712 12 1 -0.12 6.966811541989894 3.109966561161775 4.063494899134701 0 1 0
1052 18 2 0.06 3.1263576085850233 3.9208239032171983 2.493026079329113 1 1 0
720 12 2 0.06 8.345046002495332 4.397587515797285 1.90644010332413 0 1 0
1057 18 1 -0.12 4.3326386439631115 5.4969345471460835 0.8008703050053647 1 1 0
707 12 2 0.06 6.12089172330634 1.1065279672027155 6.0924776645418595 0 1 0
705 12 2 0.06 3.5633931518161477 0.5824265425037385 4.4985647846245165 0 1 0
603 11 2 0.06 2.2739483659792525 6.188057733009374 2.8998682093358474 0 0 0
267 5 2 0.06 9.682744274432885 9.345558316024649 1.475166742197414 0 0 1
1061 18 2 0.06 3.7429457419627017 7.349535903015047 -0.09900096916529644 1 1 0
836 14 2 0.06 5.544554691319242 0.18995147128377254 1.987961467347363 0 1 0
1042 18 1 -0.12 0.09792699827149176 1.149335601298055 3.0090418762538493 1 1 0
716 12 2 0.06 6.807141107530357 5.263909668692202 4.335215578754422 0 1 0
1141 20 1 -0.12 10.050605150997493 5.336263519143177 6.622979974712421 0 0 0
277 5 1 -0.12 6.177423267684709 8.308176294896944 5.485474383003114 0 0 1
607 11 1 -0.12 1.1199695445615756 4.976931563073082 5.304230303033269 0 0 0
1039 18 1 -0.12 0.10695200869903831 -0.3087183424030664 3.6185844975751644 1 1 0
1046 18 2 0.06 2.0530616782300313 1.8680596842957282 3.6138586525655887 1 1 0
1055 18 2 0.06 2.1311165426290084 5.499890617279891 0.7857803294952459 1 1 0
1050 18 2 0.06 0.8116138835361058 3.667084173065893 2.236393888307048 1 1 0
605 11 2 0.06 3.239214662053228 5.507848385589932 5.092929565267663 0 0 0
614 11 2 0.06 0.4256833924755601 2.3271851502240746 5.820656140231205 0 0 0
325 6 1 -0.12 10.292218511071972 0.8021198417891877 3.074552998255532 0 0 0
269 5 2 0.06 10.162820298118728 9.287619328593339 4.559339656806288 0 0 1
710 12 2 0.06 5.14071339128579 3.4080683118015447 5.191534302848009 0 1 0
161 3 2 0.06 1.9744798074395926 9.97923388408084 6.827250332798613 1 1 0
706 12 1 -0.12 5.554295828936528 1.2118627799067418 5.140918408402898 0 1 0
837 14 2 0.06 4.979953703953601 -0.22906778988154664 0.47320251247965395 0 1 0
326 6 2 0.06 10.084560056061031 -0.2145680187285296 2.631528996013378 0 0 0
704 12 2 0.06 3.652317015350347 1.3035226691162158 6.147795489597723 0 1 0
1064 18 2 0.06 6.166880749836764 7.764332833657326 0.9856356181605779 1 1 0
604 11 1 -0.12 2.2671267403477775 5.927790471032224 5.061354958317336 0 0 0
719 12 2 0.06 9.219375586019503 4.779259126565497 3.3985387124124244 0 1 0
1043 18 2 0.06 -0.3919385796488183 1.8675076983927141 3.749456748083193 1 1 0
327 6 2 0.06 9.395129625665893 1.3576747528602962 2.8561519038303773 0 0 0
714 12 2 0.06 7.648771868315709 3.109999121275509 4.888862353797693 0 1 0
711 12 2 0.06 4.980797228269989 2.502433570919426 3.570050696347816 0 1 0
278 5 2 0.06 5.638355730655343 9.089446962781457 4.891664290004277 0 0 1
1067 18 2 0.06 7.579829326292296 6.03681212945531 -0.07226233357813527 1 1 0
606 11 2 0.06 2.2615830993152586 6.565822501538266 5.9698325805809676 0 0 0
725 13 2 0.06 -0.5770964457286177 6.833203242886567 3.41433965799894 1 1 0
1045 18 1 -0.12 1.5193495147758536 1.650131982211561 2.675765523501477 1 1 0
1047 18 2 0.06 2.194342198461068 0.8957836454601915 2.2943188384463484 1 1 0
1048 18 1 -0.12 1.5025305186910116 2.901517106130593 1.7998240408153836 1 1 0
273 5 2 0.06 7.586905897312194 9.022206611204709 3.0927267705149464 0 0 1
1009 17 1 -0.12 0.1985804767916417 7.288892116097833 -0.35119672058214746 1 0 1
1053 18 2 0.06 3.5491623602935896 2.7650523548093635 1.3742954315627536 1 1 0
709 12 1 -0.12 5.581227579134642 2.642760958900087 4.488830423307766 0 1 0
276 5 2 0.06 8.369745589067493 8.211028259810984 5.881857336818304 0 0 1
713 12 2 0.06 7.4187036667506465 2.402769907085902 3.394336632952508 0 1 0
708 12 2 0.06 6.05023112500444 0.5076904128192856 4.440989474727125 0 1 0
1056 18 2 0.06 2.7271792649327664 4.435192361870227 -0.4254727369473127 1 1 0
1049 18 2 0.06 1.05948685501897 2.748962917090307 0.8540572294581907 1 1 0
613 11 1 -0.12 0.44961283855613465 2.964375063627242 6.72055140167059 0 0 0
1142 20 2 0.06 9.838542485460941 4.345925271428147 6.317908979396678 0 0 0
270 5 2 0.06 10.171057752152587 7.925125793672603 3.56573815271037 0 0 1
715 12 1 -0.12 7.003366837273475 4.513121541471945 3.583591817699479 0 1 0
265 5 1 -0.12 9.969701144574145 9.801687108222053 2.465134116380793 0 0 1
1058 18 2 0.06 5.1862288072251035 4.818341676586962 0.6741018042060438 1 1 0
1044 18 2 0.06 -0.4525717411139404 1.0627444880948045 2.0505563303249774 1 1 0
274 5 1 -0.12 7.638601129862353 8.772464135564316 5.26560506568105 0 0 1
1015 17 1 -0.12 1.3927775633034285 9.509508668345017 -0.21537478236028634 1 0 1
272 5 2 0.06 8.064397774063274 7.5312275700557265 3.6160633497992274 0 0 1
1054 18 1 -0.12 2.9606025311165602 4.813703689302552 0.6084586428736911 1 1 0
601 11 1 -0.12 2.0435816102713904 6.712389090686665 3.820375304564215 0 0 0
1016 17 2 0.06 1.6450121921360386 9.181904976136845 0.7721609350248457 1 0 1
279 5 2 0.06 5.907525840748202 7.2936377986646015 5.048874935006102 0 0 1
610 11 1 -0.12 1.5330791302395386 4.045357205572453 6.436196624230332 0 0 0
608 11 2 0.06 0.7888165528207334 4.472674537844303 4.388120948442807 0 0 0
266 5 2 0.06 9.305750905918845 10.673087379504983 2.503891379607164 0 0 1
835 14 1 -0.12 5.652929099547573 -0.529237670315985 1.240635891029352 0 1 0
703 12 1 -0.12 4.130062915475323 0.6266579412258284 5.428027209358416 0 1 0
271 5 1 -0.12 8.216454850276596 8.564265713303895 3.86749619329868 0 0 1
268 5 1 -0.12 9.688915426892889 8.900815413782464 3.680317801159915 0 0 1
838 14 1 -0.12 7.176885896713907 -0.5381658441935836 0.8209545964842364 0 1 0
1059 18 2 0.06 4.385803680314678 5.8833015094390655 1.8115539015275726 1 1 0
1063 18 1 -0.12 5.9143161684251675 7.539672146186973 -0.02865844549379959 1 1 0
332 6 2 0.06 8.337473113308995 0.8022601647148115 5.135106982699054 0 0 0
1065 18 2 0.06 5.655923798823425 8.546149530197543 -0.4308491015914316 1 1 0
1040 18 2 0.06 0.8137051776736326 -0.2625124878336282 4.475026519114443 1 1 0
611 11 2 0.06 2.468887519901463 3.5897066053732845 6.2761475935317526 0 0 0
328 6 1 -0.12 10.424572124985437 0.6345925270357502 4.652337891416686 0 0 0
1060 18 1 -0.12 4.599179135293444 6.669907301914789 -0.1876477372562496 1 1 0
330 6 2 0.06 10.694434694160744 1.6110128417258993 4.9917976505835515 0 0 0
723 13 2 0.06 -0.19479650888598993 8.696013177449451 2.211952504177308 1 1 0
1005 17 2 0.06 -0.10393366209967081 4.58663831815727 0.05738455574581591 1 0 1
1010 17 2 0.06 0.1894830639565248 7.137392546528079 0.702983342727453 1 0 1
1012 17 1 -0.12 0.08739362864591138 8.850170813570283 -0.6032645469176093 1 0 1
334 6 1 -0.12 9.459793811234475 0.005110034009243369 6.937053245982622 0 0 0
96 2 2 0.06 1.1966136079624592 3.6218850457964873 10.843031486926504 1 0 0
100 2 1 -0.12 0.983393506335178 1.5326725094454736 13.076497351948854 1 0 0
298 5 1 -0.12 6.33946612364869 9.50915198006132 12.58050478062664 0 0 1
1158 20 2 0.06 10.40998063479267 7.017272866840863 12.763163394299221 0 0 0
850 15 1 -0.12 4.846092313051219 1.7019502872708085 9.77973714456159 0 0 0
617 11 2 0.06 0.6020147571720247 2.571842715758295 8.896892255948003 0 0 0
97 2 1 -0.12 1.7247511513983333 2.902504068200146 12.853668264315845 1 0 0
99 2 2 0.06 2.698099820814511 2.8164732622051782 12.396074021914293 1 0 0
853 15 1 -0.12 5.136035556762178 0.5919457115446454 10.793181101241313 0 0 0
1159 20 1 -0.12 10.25591310919394 5.431757500453777 14.337235556972114 0 0 0
295 5 1 -0.12 7.46684118280389 8.490441535261471 12.190390181496639 0 0 1
1161 20 2 0.06 9.229153104854369 5.585622788448262 14.502955701875615 0 0 0
344 6 2 0.06 9.91547435809546 0.21949201076914238 9.72888346033509 0 0 0
1150 20 1 -0.12 10.892036140573557 5.783587598631443 10.446315039567239 0 0 0
286 5 1 -0.12 6.3201581080619595 7.826600402062976 9.371177154281996 0 0 1
282 5 2 0.06 5.2392891935009285 9.201980425262576 7.324914900914648 0 0 1
849 15 2 0.06 6.0352064668944845 3.3293383651929287 10.773228368664295 0 0 0
1147 20 1 -0.12 10.388080372181344 5.01383673771264 9.208386169967955 0 0 0
1154 20 2 0.06 10.445647344104701 4.20136209096438 11.877550862223417 0 0 0
842 15 2 0.06 6.411731032545457 3.099458124731808 7.836669610961806 0 0 0
82 2 1 -0.12 2.7617973346415647 8.05373547520248 13.071486705746594 1 0 0
88 2 1 -0.12 2.388989526756163 6.051325768552386 11.471558250109911 1 0 0
852 15 2 0.06 5.347211664243971 1.4075685165463256 8.844595096808233 0 0 0
299 5 2 0.06 6.115594794680903 10.29505783724422 11.809122843374627 0 0 1
292 5 1 -0.12 6.928381450224344 7.132410404375205 11.628394740671675 0 0 1
351 6 2 0.06 10.344246717251613 0.8809417851690231 12.068762188987671 0 0 0
87 2 2 0.06 1.3438148798356113 7.760134718340211 11.21721810957476 1 0 0
352 6 1 -0.12 9.783790558312713 0.09550946568316487 13.852293415759723 0 0 0
841 15 1 -0.12 6.215797870601991 4.158847232486682 8.145709845794151 0 0 0
297 5 2 0.06 8.184276527572932 8.965216069286399 11.474976872912315 0 0 1
101 2 2 0.06 -0.11671827749028263 1.716921531630625 13.138984096337845 1 0 0
98 2 2 0.06 1.913709732579688 3.2519064025636224 13.866191512390287 1 0 0
349 6 1 -0.12 9.457378574534294 0.4526521071594183 12.467014883822932 0 0 0
93 2 2 0.06 1.168898342777857 5.5705811218913714 13.316693011035541 1 0 0
843 15 2 0.06 6.16490405773177 4.929979336780884 7.352056493206219 0 0 0
851 15 2 0.06 3.781659916384256 1.602088174182898 9.586719268540175 0 0 0
94 2 1 -0.12 1.0113913756656987 3.825497400442611 11.886587661112602 1 0 0
83 2 2 0.06 3.7899484521185682 7.6893559602577035 13.196457208957314 1 0 0
1156 20 1 -0.12 10.785895665395474 5.980601466421557 12.930205865970999 0 0 0
1148 20 2 0.06 9.330067400608549 5.171684147297877 9.073763034481857 0 0 0
154 3 1 -0.12 0.11757695374723554 7.79741843237073 8.096354754635607 1 1 0
289 5 1 -0.12 7.265526866437672 6.918442722302789 10.141912460600393 0 0 1
343 6 1 -0.12 8.940096746701453 -0.23108754376441076 10.016232936875186 0 0 0
339 6 2 0.06 7.422743880247626 -0.18351451281413883 7.758360492796795 0 0 0
84 2 2 0.06 2.1517059104727068 7.4303789599017485 13.742918187922488 1 0 0
623 11 2 0.06 -0.046868923668037854 0.437673786504547 10.060578148006558 0 0 0
300 5 2 0.06 6.489475699341346 10.09159144452681 13.46742631604543 0 0 1
290 5 2 0.06 8.318407054097822 7.142828365208386 9.975097741864879 0 0 1
284 5 2 0.06 7.4772446031145225 8.938132560532837 7.980767305940937 0 0 1
354 6 2 0.06 8.910769477050001 -0.4353320775555805 14.352614696709425 0 0 0
81 2 2 0.06 1.7040904205791594 9.908649014550425 12.978169745584077 1 0 0
160 3 1 -0.12 1.9058066332518901 9.866960779602179 7.923422804426478 1 1 0
92 2 2 0.06 0.3132744037722902 5.741667253242183 11.972248045224099 1 0 0
86 2 2 0.06 3.0879473966135964 7.914835056080353 10.921148508358378 1 0 0
159 3 2 0.06 0.47218734241430926 9.330169885733811 9.561296191158537 1 1 0
620 11 2 0.06 0.029887529131263246 0.13521474846132864 7.066085940050612 0 0 0
85 2 1 -0.12 2.303042555393395 7.536906371113332 11.625736714338654 1 0 0
848 15 2 0.06 4.4340575785692335 3.4380150864398766 10.999749069937412 0 0 0
90 2 2 0.06 2.338935200989007 5.820519268949068 10.401021269392649 1 0 0
847 15 1 -0.12 5.105366252836898 3.1977603597675803 10.215314540070832 0 0 0
846 15 2 0.06 4.146086443977418 4.071310659934568 8.549232138108417 0 0 0
1155 20 2 0.06 9.18447892877662 5.246833608074012 11.691649942673783 0 0 0
296 5 2 0.06 8.005993191301236 8.090976501549624 13.072519799014584 0 0 1
104 2 2 0.06 2.358684103153732 0.31097643561039967 13.98307108320516 1 0 0
293 5 2 0.06 5.827825694049459 7.15805571164599 11.913747472482454 0 0 1
345 6 2 0.06 8.25439965929213 0.5021802187280531 9.965390431632914 0 0 0
844 15 1 -0.12 4.990201723296983 4.221812632646711 9.10359860617711 0 0 0
618 11 2 0.06 1.6897031589525415 1.6620973314208545 7.990845826592933 0 0 0
291 5 2 0.06 7.036928374440945 5.928260113336359 9.821593849997225 0 0 1
1153 20 1 -0.12 10.244709374308012 5.227559707085758 11.728280293722259 0 0 0
855 15 2 0.06 4.72541032456435 0.9814101783311069 11.70488258094312 0 0 0
350 6 2 0.06 8.642162277652519 1.1293886833710658 12.427234205053475 0 0 0
91 2 1 -0.12 1.2700304975483898 5.290748213672171 12.250007328583555 1 0 0
353 6 2 0.06 10.616221443094055 -0.6195820179314008 13.875715946911283 0 0 0
335 6 2 0.06 9.65062783742611 0.9608166044561359 7.410292345984404 0 0 0
80 2 2 0.06 3.4400392913944895 10.05239938847248 13.04850928002595 1 0 0
845 15 2 0.06 4.94957089813876 5.328992601609339 9.459152770651816 0 0 0
1160 20 2 0.06 10.391065311460899 4.346224995331593 14.313915679447762 0 0 0
616 11 1 -0.12 0.6540675109097069 2.0759641158961855 7.956554130867778 0 0 0
285 5 2 0.06 7.325649990329461 7.134955149892502 7.496062433485299 0 0 1
103 2 1 -0.12 1.3497077887502498 0.6464491371900682 14.217986287586465 1 0 0
1149 20 2 0.06 10.30592959582081 4.004163586142005 9.496807125259005 0 0 0
95 2 2 0.06 -0.02650512780803005 3.6538998516137715 12.061739615457466 1 0 0
622 11 1 -0.12 -0.09362481565575176 -0.10794183039050265 9.135309252431126 0 0 0
288 5 2 0.06 5.277363676155817 7.503685135303151 9.363378154934045 0 0 1
294 5 2 0.06 7.325761698133554 6.323090355450703 12.246425840294373 0 0 1
155 3 2 0.06 0.8620006535913518 7.157372489903453 8.608336952616185 1 1 0
157 3 1 -0.12 0.5400496265307297 9.313008705190136 8.427172005617056 1 1 0
612 11 2 0.06 1.663190446323104 4.609611699658791 7.302188959201561 0 0 0
102 2 2 0.06 0.977188243596117 0.828283671717216 12.295040910127158 1 0 0
79 2 1 -0.12 2.6117325054602434 9.524533618251537 13.464940322508792 1 0 0
283 5 1 -0.12 6.83760506202064 8.032357489019043 7.97716491760449 0 0 1
619 11 1 -0.12 -0.21757465838957563 0.8062599271511008 7.917178449928887 0 0 0
287 5 2 0.06 6.167304461724317 8.812851014741412 9.934963755713792 0 0 1
162 3 2 0.06 2.68211137940058 9.178754599138978 8.220352256444086 1 1 0
89 2 2 0.06 3.3757925513707976 5.752446980045599 11.795419237978077 1 0 0
158 3 2 0.06 -0.23993498653531387 9.9941073076829 8.120746084217384 1 1 0
854 15 2 0.06 6.116674877491275 0.5133757974872089 11.022234740064393 0 0 0
336 6 2 0.06 10.396374960244634 -0.5952775266454703 7.074092076056665 0 0 0
106 2 1 -0.12 0.5444083236775097 -0.6105377593471986 14.465433158833962 1 0 0
156 3 2 0.06 0.07495382836388265 7.548389050034926 7.064287243747788 1 1 0
281 5 2 0.06 5.023968311521114 7.496474637692469 7.066836003070979 0 0 1
1131 19 2 0.06 5.2537456075575335 9.187796848453228 19.69167289493998 0 -1 0
1166 20 2 0.06 9.897862379975495 7.676029762580866 15.629396009481084 0 0 0
1068 18 2 0.06 6.878218035506604 6.624369547959612 21.38768196805848 1 1 -1
355 6 1 -0.12 10.194200555721517 1.2740369097495947 14.810618081715468 0 0 0
50 1 2 0.06 2.9685207085045118 5.169325434240979 18.44569592086984 0 1 -1
48 1 2 0.06 3.8566455460058773 3.3269528524473655 19.893402913902445 0 1 -1
1132 19 1 -0.12 6.055773005815947 8.550525974990245 17.725910417973687 0 -1 0
53 1 2 0.06 5.392063399853289 4.956329776413433 18.40542091952955 0 1 -1
46 1 1 -0.12 3.232952410942753 3.2199841970630976 18.984275737629083 0 1 -1
54 1 2 0.06 4.589978687043208 5.65624365567345 16.918493588408005 0 1 -1
38 1 2 0.06 -0.3854937077049681 1.930029183116091 21.02780856751683 0 1 -1
1013 17 2 0.06 -0.20495275580768912 9.03720531150371 21.447494417484876 1 0 0
906 16 2 0.06 9.220640978977352 1.177743316445285 18.428624685846014 1 1 0
78 2 2 0.06 1.7571722351419634 9.137950191433987 15.413831443727208 1 0 0
37 1 1 -0.12 0.2407609105712697 1.0827827051612329 20.689735757831627 0 1 -1
359 6 2 0.06 9.372659225156466 2.675879247444525 16.137087524374273 0 0 0
479 8 2 0.06 0.8393906425159174 7.04657997258061 16.69896375088554 1 0 0
1074 18 2 0.06 9.557741988146049 6.543032446105608 20.930301891712933 1 1 -1
44 1 2 0.06 1.2391181911354288 3.6511502323553477 19.72469828035126 0 1 -1
1129 19 1 -0.12 5.529820877076645 9.568945294107932 18.76956243058737 0 -1 0
902 16 2 0.06 9.83183960573054 3.798619690072936 20.045467148699647 1 1 0
1140 19 2 0.06 7.491193468759272 7.199371178416533 15.751243972320356 0 -1 0
1134 19 2 0.06 6.927072095434815 7.973773915992195 18.0532815406973 0 -1 0
1135 19 1 -0.12 6.43579466627113 9.03057042813588 16.35243272701361 0 -1 0
56 1 2 0.06 6.102126117850934 2.903174286621326 16.807374695424592 0 1 -1
40 1 1 -0.12 1.6662466564505412 1.799821779603012 20.415541100272254 0 1 -1
76 2 1 -0.12 2.5492615571267003 9.677839489605425 14.952396293942368 1 0 0
55 1 1 -0.12 5.448108050064536 3.739965400640754 16.464975789883038 0 1 -1
1122 19 2 0.06 5.807293101852714 10.718460310973448 21.52597557936459 0 -1 0
34 1 1 -0.12 0.3103299858919232 -0.022490450123555772 21.70630034261001 0 1 -1
39 1 2 0.06 -0.14472654668664126 0.6522866819650681 19.803644640094962 0 1 -1
1137 19 2 0.06 7.3064933556119485 9.605940607197933 16.489436525597075 0 -1 0
1075 18 1 -0.12 10.856459228603157 8.102949231323295 21.243555720219273 1 1 -1
1133 19 2 0.06 5.150293486720831 7.939303395391322 17.557914608008538 0 -1 0
105 2 2 0.06 1.3853579232230482 1.1588728845307859 15.19817333233511 1 0 0
49 1 1 -0.12 3.443248930323443 4.346138137140245 17.965373132350113 0 1 -1
908 16 2 0.06 6.906429225045742 2.0224077217002603 19.215272417525945 1 1 0
480 8 2 0.06 -0.4340510246181254 7.478663932938387 15.784567563166224 1 0 0
1066 18 1 -0.12 7.18377212210422 6.85845362318156 22.39363482958254 1 1 -1
1138 19 1 -0.12 6.858510575322946 7.875772207380647 15.313843421832393 0 -1 0
51 1 2 0.06 2.7099129260748853 4.088774345518271 17.187096873594115 0 1 -1
42 1 2 0.06 2.4333225505644385 0.9795604462046927 20.27269017243394 0 1 -1
1073 18 2 0.06 9.008891039355076 7.90389931660053 20.087934349782998 1 1 -1
1127 19 2 0.06 7.3855303104978045 10.364014242168505 19.449932943876515 0 -1 0
907 16 1 -0.12 7.594650947932081 1.5003697192218763 19.90141504586406 1 1 0
1136 19 2 0.06 5.690952070002796 9.713688348115516 15.932702700624738 0 -1 0
52 1 1 -0.12 4.795179487219 4.725405899827399 17.502932346075347 0 1 -1
904 16 1 -0.12 9.07158450319678 1.7575516727567928 19.417076205576926 1 1 0
476 8 2 0.06 -0.06758436809426993 8.037141708594625 18.76308297161835 1 0 0
356 6 2 0.06 10.553949322345858 0.8563215670330064 15.754189838172362 0 0 0
107 2 2 0.06 -0.46289106480829145 -0.4159461378022121 14.79418842955657 1 0 0
915 16 2 0.06 5.253383090995563 0.1355695820905577 21.07428801199924 1 1 0
911 16 2 0.06 7.720996650905223 -0.5349172015507287 20.72276688840027 1 1 0
1163 20 2 0.06 10.739137725405989 5.521478326621374 16.466041376839975 0 0 0
43 1 1 -0.12 1.7587961768679286 2.7807200047217138 19.333314971244583 0 1 -1
903 16 2 0.06 8.403033520545259 3.7991370665220288 19.042707068768017 1 1 0
47 1 2 0.06 3.5330005447883055 2.3329405217928647 18.53330083664423 0 1 -1
910 16 1 -0.12 7.19155041413008 0.05607464236794202 19.998508537989 1 1 0
912 16 2 0.06 7.525920082650659 -0.3084876064867583 18.97163193235474 1 1 0
77 2 2 0.06 3.4800105741956546 9.346276218852964 15.480842197630633 1 0 0
58 1 1 -0.12 6.481160547213048 4.481528969144235 15.638403961001753 0 1 -1
913 16 1 -0.12 5.712073656365739 -0.21971805660947635 20.174019085106966 1 1 0
57 1 2 0.06 4.655547139735673 3.3192875115218756 15.862429021647326 0 1 -1
478 8 1 -0.12 0.08000411676788244 7.831611072273139 16.635807114724027 1 0 0
41 1 2 0.06 2.0512505717477283 2.2290841485524924 21.33461855147476 0 1 -1
416 7 2 0.06 -0.31327802263782983 2.926755675815779 16.62632745668549 1 0 -1
358 6 1 -0.12 9.143090792110016 2.24958686669066 15.169349896827397 0 0 0
905 16 2 0.06 9.720527360978203 1.3163145588099643 20.21339352779055 1 1 0
45 1 2 0.06 1.0584655002974603 2.4957437230913304 18.54369299709151 0 1 -1
1130 19 2 0.06 4.652899457944614 10.015900592560776 18.360719351266887 0 -1 0
1072 18 1 -0.12 9.414332103289453 7.567366743564689 21.03288314082965 1 1 -1
420 7 2 0.06 -0.3135752515349477 4.974354743028989 15.230722551271723 1 0 -1
901 16 1 -0.12 9.347448162553038 3.2941055310922756 19.268166210535863 1 1 0
914 16 2 0.06 5.205336989208829 0.22458140246463665 19.310081533739893 1 1 0
1069 18 1 -0.12 8.438967399530009 7.772429763719115 22.194118204997203 1 1 -1
1172 20 2 0.06 10.599810078663914 9.56746372425874 17.211724445456483 0 0 0
909 16 2 0.06 7.385898997964004 1.9159466361346018 20.853847415660145 1 1 0
60 1 2 0.06 7.22837878632101 4.9859332465564 16.305314200330727 0 1 -1
1062 18 2 0.06 4.524815976398086 6.110777770490649 21.873396560387963 1 1 -1
360 6 2 0.06 8.252510742089575 1.6852353640825246 15.340114288819306 0 0 0
1126 19 1 -0.12 6.472216720809475 10.738436405557415 18.907267953789585 0 -1 0
542 10 2 0.06 4.300396750912185 0.024932362382807827 15.489300147521096 0 0 0
1139 19 2 0.06 6.082325268616625 7.287411049985955 14.84810903291618 0 -1 0
1071 18 2 0.06 8.082443325687299 8.831147390831564 22.113488180200658 1 1 -1
543 10 2 0.06 5.888287843769066 0.08207674088040695 14.968955494049444 0 0 0
1011 17 2 0.06 1.262811301766724 7.0381803130255856 22.36763555568583 1 0 0
1017 17 2 0.06 2.21028796327953 9.136604451182352 22.193673872621453 1 0 0
59 1 2 0.06 6.095784974082099 5.291399914224641 14.978259791763238 0 1 -1
686 12 2 0.06 0.9411915737221015 16.561335222330086 6.832612191735309 0 0 0
1100 19 2 0.06 7.157926813749126 19.262163710859177 3.087789252741554 0 -1 1
815 14 2 0.06 0.8364022677096878 15.58547823289414 4.1787101294619555 0 0 0
823 14 1 -0.12 1.8245327364045631 19.1559579109913 2.4593010679627616 0 0 0
701 12 2 0.06 4.8927962004488945 21.547599920601485 5.242078314576016 0 0 0
834 14 2 0.06 5.5416084150070235 20.859363788862968 2.689505957761758 0 0 0
819 14 2 0.06 -0.3456315238217428 17.705346812552335 3.9436386587125503 0 0 0
333 6 2 0.06 8.7483140285324 22.28242433868971 5.037010691774554 0 -1 0
1109 19 2 0.06 7.583417475577452 14.77433541769565 1.7588315299859532 0 -1 1
1102 19 1 -0.12 7.647093936479113 17.215927771487255 3.0754170560375695 0 -1 1
829 14 1 -0.12 3.6928076112596733 20.82350476262735 1.6922252702580551 0 0 0
825 14 2 0.06 1.6508855906151463 19.706044220944577 3.34920414508977 0 0 0
1114 19 1 -0.12 6.3117230531597155 13.615690388802122 -0.5307145308759702 0 -1 1
1110 19 2 0.06 8.106861410365628 15.590127149571046 0.5426653428680848 0 -1 1
936 16 2 0.06 0.9132666309029491 15.739587142581545 0.29890021030161984 1 0 1
171 3 2 0.06 3.3636173278751076 11.590709883896189 6.0810585277496765 1 1 0
180 3 2 0.06 2.8390244085725365 14.545065552647314 4.577022070898139 1 1 0
1093 19 1 -0.12 7.224017922758003 17.637378197879062 6.308550950328394 0 -1 1
832 14 1 -0.12 5.181094348318858 21.095065288827556 1.6849149297457693 0 0 0
174 3 2 0.06 5.4627210621785265 12.87817520939172 6.672165421424689 1 1 0
821 14 2 0.06 2.026000479220337 17.096375715601116 2.103397830157189 0 0 0
240 4 2 0.06 10.450349770326282 20.181663628280717 1.9271622049819808 0 0 0
1103 19 2 0.06 8.65737292496773 17.47033413401427 2.7502724680745865 0 -1 1
239 4 2 0.06 9.297393157831015 19.09989630303589 1.0349927442267988 0 0 0
170 3 2 0.06 2.464487081921411 12.995478815928402 6.449816062773655 1 1 0
700 12 1 -0.12 4.350260764267369 22.19276681237641 5.8984436656267105 0 0 0
1035 18 2 0.06 -0.5277922665273017 20.987259864537933 5.593349620512799 1 0 0
1113 19 2 0.06 5.269072368722654 14.665123082119708 0.8947250661457413 0 -1 1
177 3 2 0.06 5.791262595820987 14.137733373239852 4.693831999183814 1 1 0
1107 19 2 0.06 5.729057467932632 16.875104297365283 2.062798079375006 0 -1 1
900 15 2 0.06 8.037050485184482 12.772215859399143 6.826682775056469 0 -1 0
257 5 2 0.06 9.866372945487417 11.548075935084713 0.2526471297309498 0 0 1
1115 19 2 0.06 6.956238716998118 13.036973396000112 0.07729226188882055 0 -1 1
818 14 2 0.06 -0.3930911021441979 17.425378547529093 2.2281147652869615 0 0 0
696 12 2 0.06 3.9230230604324596 19.65168643445797 6.643924447593592 0 0 0
1104 19 2 0.06 7.732940049366528 16.342833238992796 3.728732402723927 0 -1 1
693 12 2 0.06 1.9708400424587476 18.67406330799501 5.994292126139919 0 0 0
1105 19 1 -0.12 6.853939868633359 16.846744866814966 1.8181510052679286 0 -1 1
827 14 2 0.06 3.4850202890792694 18.804841772205588 1.155520403629782 0 0 0
1106 19 2 0.06 7.118392033047496 17.588199478870113 1.0582016104865621 0 -1 1
175 3 1 -0.12 4.812901356791416 13.609372425990077 4.783796103794651 1 1 0
1099 19 1 -0.12 6.966286639440143 18.377166273978524 3.866899745343427 0 -1 1
1098 19 2 0.06 7.154198501878537 19.719558891957444 5.4419153426147995 0 -1 1
29 1 2 0.06 -0.24981236546947017 20.623712203174286 -0.20210138180788784 0 0 0
817 14 1 -0.12 0.16015626241292358 17.211732159678544 3.1346288882962177 0 0 0
1112 19 2 0.06 5.6452383403855695 15.589899355864492 -0.5362569317119149 0 -1 1
830 14 2 0.06 3.255034841397299 21.11921739877147 0.7510748590834253 0 0 0
228 4 2 0.06 10.288738519575897 15.405014234511157 2.827009709590786 0 0 0
820 14 1 -0.12 1.5776412458527207 17.6701746749618 2.9088446773283803 0 0 0
929 16 2 0.06 2.3724749463895116 17.62329350451941 -0.5347405997742476 1 0 1
697 12 1 -0.12 2.983181747644689 21.549706502541035 6.215612198701769 0 0 0
172 3 1 -0.12 4.560994416845893 13.320706037602866 6.241052268528088 1 1 0
814 14 1 -0.12 0.05096010885827862 15.725611257582766 3.48844223176349 0 0 0
176 3 2 0.06 4.826146856465377 12.682875046977383 4.199398564427039 1 1 0
699 12 2 0.06 2.445178897315001 21.32849590792635 5.340482665176653 0 0 0
169 3 1 -0.12 3.3764767419119828 12.462557112895558 6.630335428140582 1 1 0
833 14 2 0.06 5.687480569727717 20.439661353550758 0.9945223690281526 0 0 0
831 14 2 0.06 3.3643258273867964 21.545221788705618 2.437157908515134 0 0 0
826 14 1 -0.12 3.3122468562330023 19.365861648363918 2.027129624789269 0 0 0
822 14 2 0.06 2.105318171382835 17.277632677061455 3.8284834989447916 0 0 0
178 3 1 -0.12 3.8461828421613102 14.661338135257955 4.161514749723491 1 1 0
238 4 1 -0.12 10.194822755473231 19.713789272308755 0.8772837225970653 0 0 0
1119 19 2 0.06 4.269129210782597 12.52578429331989 -0.31597995360310893 0 -1 1
828 14 2 0.06 3.888549845782644 19.00922324197658 2.8845394905091375 0 0 0
1096 19 1 -0.12 7.5803677717799935 18.68602177677244 5.2557148956575 0 -1 1
1020 17 2 0.06 2.222202391249812 11.332924993367353 0.45264194784509915 1 0 1
179 3 2 0.06 4.125123143452803 15.688891922608907 4.127719849415939 1 1 0
1041 18 2 0.06 0.5598983545384182 21.980531832666657 2.8668530532576497 1 0 0
1101 19 2 0.06 5.89018051294057 18.144704034722746 4.1210592739700695 0 -1 1
1111 19 1 -0.12 6.024827379851842 14.882387173274747 0.22399154747104644 0 -1 1
824 14 2 0.06 1.066182196368049 19.391757954914567 1.67035203924301 0 0 0
215 4 2 0.06 10.626215389423866 11.88473641184849 6.760814889292304 0 0 0
691 12 1 -0.12 1.926456478908848 19.29305518204923 6.887504475266255 0 0 0
1108 19 1 -0.12 7.20829461068705 15.489177867084283 1.0880798583840754 0 -1 1
816 14 2 0.06 0.41029882572748044 15.142160927824502 2.6580733105590313 0 0 0
1097 19 2 0.06 8.739283434953286 18.778042005665952 5.22046229249997 0 -1 1
251 5 2 0.06 10.203981446862187 14.707266247010521 -0.05329169684184687 0 0 1
233 4 2 0.06 10.18823905362852 17.00601996659195 0.7185501209084209 0 0 0
221 4 2 0.06 10.343308461545362 14.054449565543448 5.0733884406441145 0 0 0
702 12 2 0.06 5.0237307840730665 22.25425986467125 6.78661043358088 0 0 0
1094 19 2 0.06 6.231883078546443 17.120636419625164 6.162156423528785 0 -1 1
173 3 2 0.06 4.497417878537561 14.218305320456386 6.773445664336753 1 1 0
840 14 2 0.06 7.414838386323597 21.957172675750556 -0.07548317357332801 0 0 0
698 12 2 0.06 2.393700027969495 22.292594356319327 6.724826611891015 0 0 0
694 12 1 -0.12 3.060902386340412 20.214227631667157 7.034691517099887 0 0 0
258 5 2 0.06 10.426678570363945 12.584982310284017 1.4918649350421225 0 0 1
1018 17 1 -0.12 1.2847248850582964 11.06956818167716 0.003933718504500638 1 0 1
1095 19 2 0.06 8.02891821863783 16.858079644449305 6.418842553328885 0 -1 1
839 14 2 0.06 7.8017338894150114 22.14921153459469 1.598792015458446 0 0 0
1019 17 2 0.06 0.47112810648569003 11.305452987028685 0.6912308715271376 1 0 1
256 5 1 -0.12 10.728546348784393 12.059974385032165 0.6093390231894098 0 0 1
810 14 2 0.06 -0.48308583332356203 13.71423924518786 5.634623837418216 0 0 0
231 4 2 0.06 10.716481740254084 17.820830472793336 2.9192026330397773 0 0 0
941 16 2 0.06 -0.534712432638999 13.313014495238088 0.03764635975684494 1 0 1
692 12 2 0.06 0.9904804074967986 19.781801409341796 6.970419078612741 0 0 0
809 14 2 0.06 -0.5182091512716833 12.990076244704126 4.08230777603113 0 0 0
778 13 1 -0.12 9.961325507913367 18.636460819788276 14.411334989747045 0 0 0
630 11 2 0.06 0.22673569884744105 20.289397845913026 9.941019693002628 0 -1 0
779 13 2 0.06 9.489994275946975 19.28448178103933 13.726111601005398 0 0 0
897 15 2 0.06 9.523339459373403 12.893090784308914 8.892774372880005 0 -1 0
347 6 2 0.06 8.144900657208343 21.814375725199188 11.798850248569451 0 -1 0
895 15 1 -0.12 8.592245825195317 13.502546470688465 8.741244350895808 0 -1 0
1090 19 1 -0.12 7.190227966904871 18.15594293669872 7.784896961699239 0 -1 1
679 12 1 -0.12 -0.11586398003022635 14.858858864692762 8.91148186308691 0 0 0
890 15 2 0.06 6.844172150307633 14.613132076328176 10.482884037054063 0 -1 0
891 15 2 0.06 5.651489381977842 14.324665963543204 9.265099945422804 0 -1 0
1083 19 2 0.06 8.577056076796286 17.098407877017486 11.97439903837628 0 -1 1
695 12 2 0.06 3.2549398499897424 20.354685731767862 8.147354828910782 0 0 0
1088 19 2 0.06 8.212298920607068 16.554510567081383 8.538304947537664 0 -1 1
688 12 1 -0.12 1.922456830606499 18.214229894989984 8.032844287057472 0 0 0
578 10 2 0.06 10.177863940500478 12.257762748355912 13.847350415261142 0 -1 0
681 12 2 0.06 0.3176311318424041 13.908715376219845 9.185110083111644 0 0 0
167 3 2 0.06 4.425665610273356 11.587820318177798 8.304684850218127 1 1 0
882 15 2 0.06 3.169432043327876 12.764376087533677 12.213882786601895 0 -1 0
864 15 2 0.06 2.846769674245245 20.435021730945927 11.169938701489887 0 -1 0
1087 19 1 -0.12 7.318035970082349 17.078493217545244 8.858175998418377 0 -1 1
869 15 2 0.06 1.7406771394424911 18.224406018153623 12.45237459795104 0 -1 0
871 15 1 -0.12 3.002618946612285 16.868292474416506 13.648979983918997 0 -1 0
893 15 2 0.06 7.586518837301773 12.199407879677095 10.222451846297634 0 -1 0
338 6 2 0.06 8.007010675748441 21.39832164376742 7.145579078288784 0 -1 0
892 15 1 -0.12 7.2985770560809735 12.819483936250478 9.382263021802338 0 -1 0
899 15 2 0.06 7.7367088217031235 14.495217547130602 7.115955684274261 0 -1 0
872 15 2 0.06 4.074947096726617 16.615362947302565 13.885866157196608 0 -1 0
574 10 1 -0.12 8.688903614474881 13.817742166939762 14.383897104461935 0 -1 0
1089 19 2 0.06 6.589437943888 16.28344353760516 8.870008335333775 0 -1 1
340 6 1 -0.12 8.655362016731067 21.656330636841442 9.028166476675725 0 -1 0
1084 19 1 -0.12 7.463933061781962 17.850443921153644 10.220986873838749 0 -1 1
865 15 1 -0.12 3.8673470291928496 18.962273157347425 12.385956625395098 0 -1 0
889 15 1 -0.12 6.329107389892855 13.798646649870214 9.98136276730245 0 -1 0
1086 19 2 0.06 6.422341027619472 18.257921769766046 10.441142279561237 0 -1 1
866 15 2 0.06 4.877639155848129 18.522978781811528 12.463165713725548 0 -1 0
863 15 2 0.06 4.066814574329156 19.471016377563263 10.357834909957885 0 -1 0
885 15 2 0.06 3.765789879101189 14.689477849872313 10.726991677750139 0 -1 0
342 6 2 0.06 7.732204868687926 21.223623320088816 9.298897053948457 0 -1 0
859 15 1 -0.12 4.887809821246693 21.159772564358843 11.433695456079011 0 -1 0
857 15 2 0.06 5.45109874657186 22.067094139908285 9.438972850368067 0 -1 0
690 12 2 0.06 2.9386651282498177 17.809221511566047 8.069743465903162 0 0 0
870 15 2 0.06 2.8802065714529594 17.38069163166072 11.418862886196667 0 -1 0
687 12 2 0.06 0.04358957260522589 17.49319882716597 8.154185359287416 0 0 0
883 15 1 -0.12 4.397264215807218 14.389579378754945 11.579244256585596 0 -1 0
689 12 2 0.06 1.8143214244220331 18.716984684236408 9.010453492625265 0 0 0
1091 19 2 0.06 8.045375517660457 18.845714932891077 7.841342571774371 0 -1 1
683 12 2 0.06 1.8945844053248377 15.354246268241623 8.420808795599589 0 0 0
582 10 2 0.06 9.765230383554185 14.748700404610313 12.171716820380011 0 -1 0
163 3 1 -0.12 2.150459416803147 11.23369436362266 8.618201093400955 1 1 0
860 15 2 0.06 4.783367925992271 21.54082627078869 12.47520370324092 0 -1 0
862 15 1 -0.12 3.844958806681073 19.99648624367374 11.265051465505385 0 -1 0
877 15 1 -0.12 2.0544385442682462 14.541476206923313 12.72870892504364 0 -1 0
898 15 1 -0.12 8.45054658457185 13.64304508699998 7.292647114814389 0 -1 0
341 6 2 0.06 9.439835543835223 20.887028203076394 8.98394479598918 0 -1 0
879 15 2 0.06 1.6901430752309197 14.944527029594429 11.723770642834678 0 -1 0
579 10 2 0.06 8.905619808564932 12.298538627177457 12.782962932051863 0 -1 0
1092 19 2 0.06 6.268758718184605 18.71673110641229 8.019955118630916 0 -1 1
1081 19 1 -0.12 7.777926299472053 16.921637859813504 11.364675179610554 0 -1 1
878 15 2 0.06 1.2175686954943334 13.77144691811302 12.971453524384161 0 -1 0
868 15 1 -0.12 2.7563549588041725 17.818746805112887 12.395753047367808 0 -1 0
867 15 2 0.06 3.6530865637798637 19.47851551199643 13.270218318733315 0 -1 0
888 15 2 0.06 4.776422576365413 12.470431820107601 10.703632842271224 0 -1 0
168 3 2 0.06 3.3691762223206387 12.87941060686748 8.715898155089505 1 1 0
337 6 1 -0.12 8.358272658738898 22.229996820245148 7.642639259709364 0 -1 0
880 15 1 -0.12 3.37921437235227 13.762734839095339 12.550130275226262 0 -1 0
886 15 1 -0.12 5.400232418074732 13.310953382668238 11.120170682244273 0 -1 0
884 15 2 0.06 4.870652901612867 15.206342661293602 12.164909540277565 0 -1 0
684 12 2 0.06 1.4845385774279585 16.090045533515177 9.88065839328817 0 0 0
680 12 2 0.06 -0.46318383114856654 14.73848379056426 7.909133265504954 0 0 0
165 3 2 0.06 2.0825534147163367 10.961458292163014 9.724462059515087 1 1 0
108 2 2 0.06 0.5406136390057106 21.889992886961167 13.526191410778432 1 -1 0
856 15 1 -0.12 4.6977739410967425 22.175917926413668 10.290006376789274 0 -1 0
881 15 2 0.06 3.9180539397753638 13.633215834467316 13.524278117546944 0 -1 0
861 15 2 0.06 5.946408087663951 20.742623962232546 11.314041788304568 0 -1 0
685 12 1 -0.12 0.9591021359637044 17.002432804073468 7.897842406799141 0 0 0
1085 19 2 0.06 8.12238707384805 18.70167846593415 10.107771215187254 0 -1 1
873 15 2 0.06 2.8774491082804006 17.54372475573359 14.504914846329642 0 -1 0
1082 19 2 0.06 6.960542709822556 16.637600903980296 12.036458208668016 0 -1 1
166 3 1 -0.12 3.385566670450631 11.991207181069345 8.103883132962205 1 1 0
887 15 2 0.06 6.010978776476427 13.035246749822575 11.950000134991868 0 -1 0
629 11 2 0.06 -0.38732694404877166 21.291923914935694 11.164415393227424 0 -1 0
896 15 2 0.06 8.811068622678054 14.534189180668665 9.147172829002033 0 -1 0
894 15 2 0.06 6.750482982075512 12.187392994070246 8.63084003961209 0 -1 0
876 15 2 0.06 0.9995964469178895 15.828510026758309 13.952389903889294 0 -1 0
858 15 2 0.06 3.66127051977025 22.072247350912193 9.879633888070611 0 -1 0
682 12 1 -0.12 1.06046900829389 15.884497796120069 8.8985964376088 0 0 0
164 3 2 0.06 1.3139387504050732 11.839652507259652 8.420086737095437 1 1 0
577 10 1 -0.12 9.52738476798571 12.95529407464141 13.394162619963408 0 -1 0
576 10 2 0.06 7.957889623054779 14.285664259968872 13.802304929737975 0 -1 0
874 15 1 -0.12 2.021031144116279 15.63602058679691 13.790664536786924 0 -1 0
581 10 2 0.06 10.51511920085375 13.322685091929092 11.637538123212956 0 -1 0
780 13 2 0.06 10.253656333908214 17.762127296879832 13.899572357177766 0 0 0
580 10 1 -0.12 10.301895440557571 13.887888743254448 12.51339754535713 0 -1 0
348 6 2 0.06 9.803166551124788 21.558347882822982 11.516114340772198 0 -1 0
346 6 1 -0.12 9.061561218979982 22.366296292448723 11.509742922925524 0 -1 0
624 11 2 0.06 0.8939366404757321 22.359057893744893 9.090371717529486 0 -1 0
74 2 2 0.06 2.8074953243759686 11.820255356572874 14.699650938778511 1 0 0
75 2 2 0.06 1.191486588129803 11.288954916613488 14.728739044287389 1 0 0
113 2 2 0.06 0.7187935544734094 19.531341321771745 14.929917456647468 1 -1 0
244 5 1 -0.12 9.41262420115006 15.808698712975584 20.621171687772645 0 0 0
566 10 2 0.06 7.068454966168784 15.664674481747273 16.395372136784168 0 -1 0
1117 19 1 -0.12 4.994838018348558 12.861966782695173 21.97541204889286 0 -1 0
916 16 1 -0.12 5.3495808462729775 21.276739357185317 20.267928455967667 1 0 0
246 5 2 0.06 8.57940118721925 15.702642324630197 21.2804987829991 0 0 0
547 10 1 -0.12 6.238429073026862 20.155526883287333 15.641583345772496 0 -1 0
35 1 2 0.06 1.1308278385079003 22.355837112430123 21.31377191542979 0 0 -1
918 16 2 0.06 6.0517795771346385 20.765330524540612 20.901893845126477 1 0 0
567 10 2 0.06 7.240846722952641 14.390270499443767 17.59175236001715 0 -1 0
920 16 2 0.06 3.153699766770034 21.42402643244348 20.108076945872735 1 0 0
555 10 2 0.06 4.9682237336835415 17.88735894542814 16.21560171193986 0 -1 0
110 2 2 0.06 2.2933159763674147 21.416116330316118 15.257167518379367 1 -1 0
65 2 2 0.06 2.0318387807096765 13.318241449316345 19.009311908151314 1 0 0
70 2 1 -0.12 2.200256226087685 11.55925597977528 16.705253289431532 1 0 0
117 2 2 0.06 2.3349855482886395 19.37368084201756 16.99303856735044 1 -1 0
919 16 1 -0.12 3.8651906819143207 21.038992898632106 20.77697136955881 1 0 0
554 10 2 0.06 4.6206552842662685 18.953871475312738 17.46131822629391 0 -1 0
1116 19 2 0.06 6.8776589776192605 13.83818571334832 21.5922766992772 0 -1 0
932 16 2 0.06 0.07244403236780006 17.122908665627627 20.65626813018037 1 0 0
69 2 2 0.06 2.6975035495560515 13.669871690216747 16.56799147460788 1 0 0
925 16 1 -0.12 2.106179656985332 19.15710447133594 21.164799525226893 1 0 0
563 10 2 0.06 4.70868190491592 15.673382301882363 16.213215832153992 0 -1 0
544 10 1 -0.12 5.552913709228501 21.440326961853756 16.162761093672263 0 -1 0
922 16 1 -0.12 3.6031517786742704 19.56767165571128 21.103044244036877 1 0 0
926 16 2 0.06 1.576186084368561 19.847854569303298 21.888754524519467 1 0 0
568 10 1 -0.12 6.615036286680575 13.525795663226036 15.754548908481702 0 -1 0
551 10 2 0.06 7.133194626136673 19.649074032499975 17.552254380473265 0 -1 0
931 16 1 -0.12 0.5435030920138688 17.178155824538553 21.670826002223354 1 0 0
557 10 2 0.06 5.584751700487402 17.808136103358926 19.244880812577644 0 -1 0
120 2 2 0.06 1.1394323700221671 17.233524037620974 16.479806061083906 1 -1 0
1118 19 2 0.06 4.491846925741541 13.507810427720214 21.247159009658226 0 -1 0
571 10 1 -0.12 7.999038324675235 12.918068186455207 15.389066518094207 0 -1 0
1123 19 1 -0.12 5.866714199615176 11.98196592000031 19.74345570547558 0 -1 0
109 2 1 -0.12 1.25911997709366 21.519364145554476 15.531399833773978 1 -1 0
546 10 2 0.06 4.681278400994061 21.049657639056953 16.70258484164538 0 -1 0
550 10 1 -0.12 6.636484035179976 19.141287917664993 16.746683803841886 0 -1 0
927 16 2 0.06 1.670284686930711 19.455307754430766 20.174618645711874 1 0 0
63 2 2 0.06 0.17214641360653493 14.877637806437889 19.351674934686564 1 0 0
114 2 2 0.06 -0.34559103951435083 20.181525499085502 15.807073813880425 1 -1 0
242 5 2 0.06 10.70619262186777 17.537646716831997 20.204887057077183 0 0 0
62 2 2 0.06 1.1930501221063792 15.59688826773355 18.314421868934335 1 0 0
73 2 1 -0.12 2.1733708894472654 11.158885009715243 15.19217848982827 1 0 0
111 2 2 0.06 1.314928603483278 22.101089117035073 16.428893038580394 1 -1 0
558 10 2 0.06 6.820426214604594 17.025249173901216 18.31468304163622 0 -1 0
924 16 2 0.06 4.173634838246156 18.952119759754513 20.400322991100637 1 0 0
1120 19 1 -0.12 5.2796943045831615 11.60284969444646 21.10062655880705 0 -1 0
1125 19 2 0.06 5.115348786035275 12.45406025750769 19.11232420751417 0 -1 0
561 10 2 0.06 5.099422467994486 15.402622847357144 19.125868882942584 0 -1 0
923 16 2 0.06 4.088864715301195 19.24621788677288 22.032481634366622 1 0 0
556 10 1 -0.12 5.778252131070645 17.35956674271718 18.230628511380246 0 -1 0
917 16 2 0.06 5.53562419063836 20.855285163261023 19.283725802711512 1 0 0
243 5 2 0.06 9.191681543989619 18.005933223928626 20.718850562726175 0 0 0
575 10 2 0.06 9.289509098034925 14.583266795848834 14.93570836270512 0 -1 0
562 10 1 -0.12 5.103241480139471 15.174905135749022 17.040205644479748 0 -1 0
560 10 2 0.06 3.8126458678115362 16.387736737740394 18.325526424559094 0 -1 0
928 16 1 -0.12 1.9500919699468073 17.676376711911487 21.512233968907836 1 0 0
930 16 2 0.06 2.563202468766125 17.017959852022766 20.86951202976587 1 0 0
564 10 2 0.06 4.556160644148353 14.329119798621457 17.402964286578023 0 -1 0
1124 19 2 0.06 6.7146933635352655 12.71372543759075 19.928326843466483 0 -1 0
118 2 1 -0.12 0.760666101989101 17.962821010878553 17.211342989851353 1 -1 0
68 2 2 0.06 1.1365141071522462 13.126942233437795 16.08983180602453 1 0 0
559 10 1 -0.12 4.911658452933119 16.096993369829693 18.267762022372207 0 -1 0
245 5 2 0.06 9.055387634574547 15.625746009388923 19.62605841267095 0 0 0
573 10 2 0.06 8.672521051118 12.831321676596843 16.2073253169143 0 -1 0
250 5 1 -0.12 10.1167671005602 14.00717903254803 22.149852235159038 0 0 0
247 5 1 -0.12 10.369000292126485 14.593198091417763 20.816572931645087 0 0 0
67 2 1 -0.12 1.8833409769053704 13.060148093048582 16.828523223399586 1 0 0
565 10 1 -0.12 6.589665768693574 14.739200272518326 16.74705592762221 0 -1 0
935 16 2 0.06 1.0675190355222046 15.044802427587419 21.720487474498544 1 0 0
112 2 1 -0.12 0.6817244042327495 20.12564199670738 15.784074451832048 1 -1 0
921 16 2 0.06 3.702593606312754 21.691944728388634 21.639180199912722 1 0 0
115 2 1 -0.12 1.2685578916536897 19.38697616142561 17.005947249738313 1 -1 0
116 2 2 0.06 1.0192458893094534 19.91246560551788 17.955408101673594 1 -1 0
64 2 1 -0.12 1.2435651873877285 13.371809568175548 18.19297257388802 1 0 0
119 2 2 0.06 0.8565890497132382 17.624236309196117 18.220451585742943 1 -1 0
569 10 2 0.06 6.014649264816143 12.741703364416729 16.118630750379236 0 -1 0
553 10 1 -0.12 5.430923768226047 18.365761210735606 17.119080752010348 0 -1 0
545 10 2 0.06 6.141944147631106 21.989510895355636 16.90933608255679 0 -1 0
549 10 2 0.06 7.169614846116371 20.351845002134233 15.130712370304515 0 -1 0
241 5 1 -0.12 9.920158886827 17.220051503306138 20.888440388803357 0 0 0
249 5 2 0.06 10.234962357444441 13.778490084433512 20.141942793448926 0 0 0
71 2 2 0.06 3.1445486065069392 11.287816916312794 17.226820622160304 1 0 0
1121 19 2 0.06 4.2564040344154055 11.226974035495079 20.865802376904654 0 -1 0
570 10 2 0.06 6.056635535738725 13.896389220023556 14.897404490590763 0 -1 0
72 2 2 0.06 1.3895852317709925 10.908717482779789 17.162208220940105 1 0 0
66 2 2 0.06 0.6024659510305839 12.558839631651875 18.468269166574384 1 0 0
552 10 2 0.06 7.416599650340288 18.51359880724203 16.374102346800917 0 -1 0
61 2 1 -0.12 0.5291151538320036 14.71507504267817 18.322336372592986 1 0 0
1128 19 2 0.06 6.65759012681037 11.18396113525775 17.94194825694251 0 -1 0
541 10 1 -0.12 5.067878278869631 22.38293571297051 15.145112283897214 0 -1 0
572 10 2 0.06 7.864241550917118 11.88898716467008 15.140382799879575 0 -1 0
934 16 1 -0.12 0.44815244621765515 15.760443962539721 22.341233489561453 1 0 0
312 6 2 0.06 10.757208454388797 22.17585315900514 21.202743253635788 0 -1 -1
933 16 2 0.06 0.007554470799993052 17.91994284881192 22.30628015278669 1 0 0
548 10 2 0.06 5.53926810959131 19.70930452506432 14.933466400843463 0 -1 0
252 5 2 0.06 9.167205722965473 13.567720770548895 22.2952391867379 0 0 0
875 15 2 0.06 2.330267894710721 15.170965706885537 14.747536897443123 0 -1 0
797 14 2 0.06 19.5895672404911 9.187767075368532 6.409205219435865 -1 0 0
531 9 2 0.06 16.80834609105176 4.945697480348626 3.5596329130507938 0 0 0
952 16 1 -0.12 18.19669572586789 10.539074127227776 1.0475335616495156 0 0 1
957 16 2 0.06 16.86837592252638 8.860270231715338 1.28073635490487 0 0 1
960 16 2 0.06 15.238300608180902 10.317153446797375 2.214313244194178 0 0 1
324 6 2 0.06 12.515720081241263 0.924460097926626 2.6013027290715987 0 0 0
1080 18 2 0.06 11.14248757108881 7.788621835874878 0.39204773032355256 1 1 0
532 9 1 -0.12 14.829867019893813 5.4879580125398215 2.8132343379446216 0 0 0
734 13 2 0.06 20.55991595067345 5.467851045763999 5.579726964939086 0 1 0
533 9 2 0.06 15.32026862768585 6.248208989810536 2.2473445670460372 0 0 0
800 14 2 0.06 18.97414828611382 10.850466052073115 4.962124410564821 -1 0 0
990 17 2 0.06 17.21979838045366 1.2650907366807815 1.5689135384063664 0 0 1
739 13 1 -0.12 19.435419284180227 3.085925629870606 6.415783627004092 0 1 0
523 9 1 -0.12 15.074021918152013 2.8049524829309136 5.3958611481893595 0 0 0
724 13 1 -0.12 21.632988777120513 7.544865833016853 3.589132275026957 0 1 0
728 13 2 0.06 20.115939098557714 7.161916220817455 2.148503621228906 0 1 0
743 13 2 0.06 18.183290992456218 1.389057979866143 5.967927967667546 0 1 0
320 6 2 0.06 10.897830871161599 2.857445562781724 0.9135061972177261 0 0 0
729 13 2 0.06 19.519381712405718 7.569408564869519 3.779578330784015 0 1 0
539 9 2 0.06 11.630019210212776 5.33776498640249 2.6141241338146557 0 0 0
1002 17 2 0.06 20.83058751521607 4.960230630802827 0.9492014758741054 0 0 1
1037 18 2 0.06 21.23429242073333 0.017202630743720637 4.564156649604759 0 1 0
733 13 1 -0.12 19.85951678459193 5.051423573231056 4.893021751807998 0 1 0
997 17 1 -0.12 20.679871298062604 2.859444137757037 0.32455010539372187 0 0 1
529 9 1 -0.12 15.793726438119013 4.754911877761608 3.8043322372284747 0 0 0
726 13 2 0.06 21.49653121926752 7.634440937854238 4.645273011062267 0 1 0
534 9 2 0.06 14.3998208246102 4.8916569636553096 2.0010225205956096 0 0 0
262 5 1 -0.12 11.453455868565788 10.268711414542928 2.344666450006012 0 0 1
727 13 1 -0.12 20.264206168646485 6.9615008289485365 3.2274809979984127 0 1 0
794 14 2 0.06 17.10931295726769 9.399595554602142 6.282926470470335 -1 0 0
520 9 1 -0.12 14.8064629777894 1.329679322697324 5.382134811770712 0 0 0
522 9 2 0.06 13.880748089135913 1.0692672443684021 4.866844388072806 0 0 0
996 17 2 0.06 20.004890371794716 2.5598421886055647 2.36486559592298 0 0 1
329 6 2 0.06 11.202373710340106 -0.1054540507681937 4.806516429519932 0 0 0
528 9 2 0.06 16.559004561078893 2.7476059300302014 3.8588355773841343 0 0 0
994 17 1 -0.12 19.67972369819876 2.4039256354890868 1.372368312174074 0 0 1
993 17 2 0.06 20.23286247271255 0.3822663741930328 1.8995104581710476 0 0 1
796 14 1 -0.12 19.094966982550666 9.9909747140296 6.939158161912337 -1 0 0
730 13 1 -0.12 20.18491027062828 5.460405270772169 3.4047754583058474 0 1 0
1014 17 2 0.06 22.391491040523942 9.260959155053612 0.11204779207384707 0 0 1
526 9 1 -0.12 15.560021615152404 3.2235708209350213 3.9973122905765965 0 0 0
422 8 2 0.06 15.052509648312068 2.2373890113521147 0.9473036986862917 0 1 1
989 17 2 0.06 18.17819575379427 0.9790126630681486 3.0735704836879867 0 0 1
313 6 1 -0.12 12.073407586006182 -0.15293138244808063 -0.22748871784039376 0 0 0
321 6 2 0.06 12.44968492050373 2.248833470841992 0.6863414837228403 0 0 0
530 9 2 0.06 15.792231154592006 5.242178311657042 4.771362352915471 0 0 0
540 9 2 0.06 11.938980256724806 6.999681882102593 2.2406625780456157 0 0 0
737 13 2 0.06 20.703100230050694 3.0302096183394958 4.801455495951733 0 1 0
423 8 2 0.06 16.28749246097623 3.337616910929641 0.9040314170201724 0 1 1
735 13 2 0.06 18.938399466184578 5.609995440069447 5.1904126344297925 0 1 0
744 13 2 0.06 19.797527650185216 0.8436601664293364 6.1691826137367105 0 1 0
263 5 2 0.06 12.144263561145888 9.49106083237235 2.417478272304206 0 0 1
524 9 2 0.06 14.205503438932285 3.3845720016419447 5.594755229409336 0 0 0
527 9 2 0.06 14.957751728836408 2.6924582952350793 3.233815427299588 0 0 0
314 6 2 0.06 13.080319570948873 0.2553979793171003 -0.05827144750134827 0 0 0
991 17 1 -0.12 19.384183511723343 0.8914803324409057 1.3255898044059549 0 0 1
953 16 2 0.06 18.995168207425674 9.82621782292375 0.7560062806187668 0 0 1
742 13 1 -0.12 19.041715977598177 1.5608288589414783 6.5958012282497345 0 1 0
519 9 2 0.06 14.61444362872987 -0.46545465617017634 6.692569845637356 0 0 0
535 9 1 -0.12 13.632191686973522 6.174418986595057 3.471867720234492 0 0 0
322 6 1 -0.12 11.605867182616773 1.4831984807971965 2.4908181143299926 0 0 0
537 9 2 0.06 13.401994414046117 5.672646725933969 4.459227542665233 0 0 0
731 13 2 0.06 19.27923321052178 5.189786475783489 2.826307543434702 0 1 0
958 16 1 -0.12 15.535579243539644 10.450365085350393 1.113348103774096 0 0 1
992 17 2 0.06 19.316404357117346 0.5223656685143481 0.24296795644175517 0 0 1
521 9 2 0.06 15.571387917374938 0.8360916334840369 4.741359444869763 0 0 0
736 13 1 -0.12 19.753197748430022 3.4975716734396025 4.967349790290577 0 1 0
421 8 1 -0.12 15.351028244722187 3.1141579840661646 0.4317218211453304 0 1 1
738 13 2 0.06 18.97795316280015 3.1144476352446024 4.387774522164087 0 1 0
517 9 1 -0.12 14.882064818632127 0.5886879321454244 6.777295756336465 0 0 0
741 13 2 0.06 18.57053366240709 3.6275766717239 6.732667160043343 0 1 0
988 17 1 -0.12 18.026867356415103 0.6843485532729809 2.016183847127113 0 0 1
536 9 2 0.06 13.871587590068653 7.21468844632554 3.62181905574022 0 0 0
955 16 1 -0.12 16.885145082944437 9.82561049792858 0.7782999189019117 0 0 1
995 17 2 0.06 18.810053759292984 2.986432897293786 1.3194621458600921 0 0 1
323 6 2 0.06 11.883806512720646 2.4421870807403097 2.9764663521353123 0 0 0
998 17 2 0.06 21.67276341380808 2.6228199761269866 0.680199278917144 0 0 1
956 16 2 0.06 17.021385419589723 9.599086225702258 -0.2578462988640037 0 0 1
538 9 1 -0.12 12.437657743497102 6.051107110341773 2.4023721094151576 0 0 0
722 13 2 0.06 21.198386216287307 9.153163304166409 2.259523275031909 0 1 0
1078 18 1 -0.12 11.624446076037662 7.661979510267226 -0.5760830597359459 1 1 0
732 13 2 0.06 21.078759912581372 4.8851365375465745 2.991248157498723 0 1 0
721 13 1 -0.12 22.00182779506582 8.884920177013493 2.8760930583878817 0 1 0
261 5 2 0.06 11.957242930514035 10.312675152934506 0.25429550376440857 0 0 1
319 6 1 -0.12 11.445964455415835 1.932106224831303 0.957403294844611 0 0 0
525 9 2 0.06 15.815748313403624 3.1009486482738966 6.079183735470588 0 0 0
1000 17 1 -0.12 20.83494811076217 4.395721007670064 -0.031050521375848184 0 0 1
316 6 1 -0.12 11.043645079389778 0.9515619078991642 -0.07807894992418773 0 0 0
954 16 2 0.06 18.31503239189743 10.620017948864927 2.136993274438323 0 0 1
983 17 2 0.06 15.570367904488997 -0.3925541801100803 1.9324305771541028 0 0 1
264 5 2 0.06 11.619239403538996 10.89051084210144 3.212548205218561 0 0 1
999 17 2 0.06 20.4904611523434 2.300095766611996 -0.5928935030441711 0 0 1
984 17 2 0.06 16.32778521519225 -0.5946625673814872 3.5054242660871067 0 0 1
195 4 2 0.06 14.290656278877224 8.916152286033947 14.50157833548796 0 0 0
205 4 1 -0.12 12.913188285822274 9.934068175704132 9.763190313488126 0 0 0
507 9 2 0.06 14.934032254347759 1.411646221333056 11.724306248688471 0 0 0
193 4 1 -0.12 14.771548623285343 8.442673655386915 13.638704487389024 0 0 0
194 4 2 0.06 15.8049297003578 8.8204042979648 13.539750276342657 0 0 0
782 14 2 0.06 14.506715676292357 5.875462186155052 10.338807587735346 -1 0 0
515 9 2 0.06 13.708595381493232 2.1525932180105243 7.510118563715819 0 0 0
506 9 2 0.06 14.787703260112822 3.1844515845231114 11.51372458544831 0 0 0
185 4 2 0.06 17.528150825687824 5.767517582665937 13.336910644171601 0 0 0
798 14 2 0.06 19.56312241977262 10.15301916668023 7.890300617409071 -1 0 0
1157 20 2 0.06 11.825475246799117 6.024180378258319 12.823185426555076 0 0 0
186 4 2 0.06 17.797171622805624 7.535180602135513 13.752116623247566 0 0 0
140 3 2 0.06 18.45630439417474 3.4030234948573073 10.41456101849151 0 1 0
136 3 1 -0.12 19.181284959025373 2.7594413051366047 12.237057552832226 0 1 0
508 9 1 -0.12 13.501111886043331 1.9147302339416674 10.22596291617611 0 0 0
137 3 2 0.06 19.68533433584019 1.9913667810029825 11.623518840189675 0 1 0
184 4 1 -0.12 17.530744000331527 6.528524841523481 14.129258064503967 0 0 0
781 14 1 -0.12 15.172126125824349 5.619510203321488 9.547095066811464 -1 0 0
142 3 1 -0.12 20.348717242457656 4.5508964055428685 10.88328658644401 0 1 0
147 3 2 0.06 19.62606767312374 6.469937553947607 9.958227705749987 0 1 0
503 9 2 0.06 12.422390407837467 2.957146732439393 12.36481921234027 0 0 0
792 14 2 0.06 18.435417639697135 7.451227095010696 7.4931189087847 -1 0 0
1146 20 2 0.06 11.791145807115178 4.603884260567072 7.674817872106072 0 0 0
133 3 1 -0.12 17.8701714992433 2.1869646134167344 12.737650434625671 0 1 0
190 4 1 -0.12 14.966456350250976 6.897094723394513 13.858121378484753 0 0 0
795 14 2 0.06 17.011869047883934 10.27434202324641 7.649324231960501 -1 0 0
196 4 1 -0.12 13.76306910484982 8.638042234048765 12.431414472780833 0 0 0
146 3 2 0.06 19.496339766846614 5.200335490744725 8.87416373888693 0 1 0
206 4 2 0.06 13.888441268154843 10.268266741299138 9.55688688933733 0 0 0
513 9 2 0.06 14.653507574782626 0.252187123776193 9.705089557847339 0 0 0
148 3 1 -0.12 21.39217776739853 5.912332072146205 8.820383788844289 0 1 0
130 3 1 -0.12 17.963779157205156 1.0765003802308457 13.828061434524464 0 1 0
510 9 2 0.06 12.70389703295332 1.2312717300019504 10.538715504532158 0 0 0
134 3 2 0.06 17.359019769477683 1.9041715577460088 11.79400698225646 0 1 0
788 14 2 0.06 16.092881683592385 6.922516872304733 7.355239992389284 -1 0 0
1167 20 2 0.06 11.328487369237614 7.914345079483111 14.61015374769309 0 0 0
748 13 1 -0.12 18.353562183671784 -0.45194032401775674 8.059421540760379 0 1 0
791 14 2 0.06 18.441952804064687 8.356311320663995 8.769794288436316 -1 0 0
664 12 1 -0.12 20.601072307922003 10.589388320713976 11.715787027062754 -1 0 0
786 14 2 0.06 17.200773899677507 6.0208510332183875 9.567336730484655 -1 0 0
787 14 1 -0.12 16.32179206054254 7.502767721292084 8.248116831352137 -1 0 0
143 3 2 0.06 20.785750340948688 5.019851765912444 11.800275247377915 0 1 0
518 9 2 0.06 15.886846344016323 0.6526126267040369 7.184721203347185 0 0 0
501 9 2 0.06 14.67541374990935 3.525067831372234 13.897567001176684 0 0 0
139 3 1 -0.12 18.972851704421448 3.8978884914486835 11.261753824212027 0 1 0
753 13 2 0.06 16.673219178983484 -0.506340826725558 9.236343859752534 0 1 0
127 3 1 -0.12 18.886490410591243 -0.10975150547165535 13.576793876828368 0 1 0
512 9 2 0.06 15.46709602024755 1.785169012515877 9.27253361120271 0 0 0
505 9 1 -0.12 14.209487946449917 2.24203771493737 11.608933080578929 0 0 0
504 9 2 0.06 12.690725933510853 1.3887378198096418 12.95482585875432 0 0 0
785 14 2 0.06 16.213927752000657 7.236771375852397 10.301991537324314 -1 0 0
621 11 2 0.06 21.78209670413822 1.0636737233293914 7.799836123732986 -1 0 0
783 14 2 0.06 15.502753391620796 4.562246333176458 9.862537023690837 -1 0 0
202 4 1 -0.12 12.375981620028659 10.393424092337652 11.106596020047904 0 0 0
509 9 2 0.06 13.09503606550807 2.794151992850842 9.795016588708869 0 0 0
502 9 1 -0.12 13.16028318674227 2.372360614414221 12.797900745941332 0 0 0
198 4 2 0.06 14.373557629965484 8.242054707185268 11.571979209773904 0 0 0
747 13 2 0.06 17.72870466563696 1.563239268416313 8.402231059931456 0 1 0
499 9 1 -0.12 13.76889589982995 2.9840760389018466 14.095683997089623 0 0 0
662 12 2 0.06 18.60203949038736 9.887600014230713 12.212577773417118 -1 0 0
784 14 1 -0.12 16.293845908378266 6.622122030284447 9.473718199879611 -1 0 0
210 4 2 0.06 11.031333626472168 10.30985215046554 8.813519196057092 0 0 0
200 4 2 0.06 12.76746751968315 10.426128814636803 13.156064638816764 0 0 0
1152 20 2 0.06 11.913184802965137 5.389100993727237 10.542372967080896 0 0 0
135 3 2 0.06 17.140488908318332 2.976183307487728 13.06107980266718 0 1 0
746 13 2 0.06 19.36304752825341 1.3902685129349739 8.713083725283546 0 1 0
153 3 2 0.06 21.663844828344978 7.823786660271445 9.80812855339044 0 1 0
516 9 2 0.06 12.94278443142378 0.6091141915899787 7.89625501832143 0 0 0
197 4 2 0.06 12.942880425909893 8.013552811810786 12.394795552432845 0 0 0
789 14 2 0.06 15.583113746496416 8.2541733502417 8.43725865879397 -1 0 0
128 3 2 0.06 19.940890788160353 0.14540148608456316 13.599325646163466 0 1 0
199 4 1 -0.12 13.299304271599276 10.146429437302215 12.23954905358508 0 0 0
745 13 1 -0.12 18.613888338987532 1.095712643989861 8.012330136682433 0 1 0
138 3 2 0.06 19.924540020396478 2.959091699171276 13.05167065065952 0 1 0
514 9 1 -0.12 13.911535060802642 1.1285635429834364 7.861732852142465 0 0 0
207 4 2 0.06 13.009334017751746 8.867953534264016 9.747731339757118 0 0 0
209 4 2 0.06 12.33579845371096 9.762223310734932 7.66711679530942 0 0 0
152 3 2 0.06 20.87402952344519 7.868481189670209 8.285766394211628 0 1 0
663 12 2 0.06 19.607327255651683 8.575255708881054 11.6980913778774 -1 0 0
192 4 2 0.06 15.068531404893413 6.479017475898228 12.845635623045853 0 0 0
661 12 1 -0.12 19.449560777400357 9.661798661093682 11.578592038797598 -1 0 0
144 3 2 0.06 21.061320574820904 3.7841938520263234 10.411776754350909 0 1 0
419 7 2 0.06 21.36982919008521 4.282459868868226 14.229109238138786 0 0 -1
141 3 2 0.06 18.33723882909215 4.74997461633688 11.659233737969947 0 1 0
511 9 1 -0.12 14.492962003022425 1.2112742093489632 9.309272437041082 0 0 0
145 3 1 -0.12 20.143629193241395 5.579941576033092 9.680815513184282 0 1 0
129 3 2 0.06 18.72628878992971 -0.26950110971322766 12.529418056356405 0 1 0
665 12 2 0.06 21.502366501519525 10.077749772150936 11.463917552399192 -1 0 0
132 3 2 0.06 16.927145560825775 0.7720903914567832 13.934810295823608 0 1 0
201 4 2 0.06 14.239861226690113 10.73132285952928 12.123809912997675 0 0 0
790 14 1 -0.12 17.720703907599276 8.175379497800508 7.975003020705849 -1 0 0
149 3 2 0.06 21.379421526122584 5.611568751715905 7.815219900434851 0 1 0
208 4 1 -0.12 12.038416822926688 10.368272543506855 8.553761212083796 0 0 0
151 3 1 -0.12 21.732360917748853 7.378906176680683 8.83529978869725 0 1 0
191 4 2 0.06 13.968650318473369 6.570820493890046 14.190675034482213 0 0 0
204 4 2 0.06 11.431244702679765 9.942230058819236 11.340538735136436 0 0 0
1145 20 2 0.06 11.648336051189762 6.352057590503293 7.874786548042644 0 0 0
793 14 1 -0.12 17.65465547290854 9.513422756996913 7.223756223676341 -1 0 0
500 9 2 0.06 13.109141572591868 3.7288526441597876 14.495993037693777 0 0 0
752 13 2 0.06 18.238867976625443 -0.45681243098277274 10.204435816167493 0 1 0
1144 20 1 -0.12 11.050994022565876 5.420045437155315 7.835829585540678 0 0 0
357 6 2 0.06 10.962020815248483 1.837039800243336 14.378236246926122 0 0 0
740 13 2 0.06 20.1451430897475 3.436759677210901 7.1640745771303855 0 1 0
1151 20 2 0.06 11.005714126534112 6.850595118348748 10.215209628929603 0 0 0
150 3 2 0.06 22.234131627003443 5.388998297076718 9.296245051562117 0 1 0
497 9 2 0.06 14.49009638665603 1.1004894489755488 14.625497018957937 0 0 0
483 9 2 0.06 11.972824326089194 4.27377615631527 19.934400573490016 0 0 0
1173 20 2 0.06 11.888780926041356 9.518942554804374 18.31938787281872 0 0 0
434 8 2 0.06 18.444421885717077 0.018976682542591772 20.808915247922865 0 1 0
1169 20 2 0.06 12.881108358939953 7.71410518333408 16.931204161709612 0 0 0
424 8 1 -0.12 15.618232349876475 2.7422953455966854 21.99435735808641 0 1 0
405 7 2 0.06 17.976034163652916 5.192475942042009 18.33597941644549 0 0 -1
437 8 2 0.06 18.89435251199022 0.7570657471976074 17.84339294293285 0 1 0
1175 20 2 0.06 13.537612116677474 10.2221847379718 16.50770915050195 0 0 0
435 8 2 0.06 19.235062479703544 1.3925448467386987 20.33915734214213 0 1 0
413 7 2 0.06 21.98913143686724 4.56663598600765 17.93948421111886 0 0 -1
131 3 2 0.06 18.175588840366018 1.5422230487756643 14.86164104650945 0 1 0
406 7 1 -0.12 19.80149704081852 4.335459135603981 19.42525549351544 0 0 -1
307 6 1 -0.12 12.498266584185007 -0.16344133995330196 20.26904320539721 0 0 -1
400 7 1 -0.12 17.78320366594583 5.8489454948238455 20.3552709445213 0 0 -1
1174 20 1 -0.12 12.434795222676923 10.389482379748626 16.360412881048916 0 0 0
436 8 1 -0.12 18.51953358847446 0.10675467729440391 18.621799794624533 0 1 0
472 8 1 -0.12 21.24937267865368 8.987379507220837 17.806761894999493 0 0 0
490 9 1 -0.12 14.745610977853064 3.648266370316871 16.961277034546423 0 0 0
1004 17 2 0.06 22.34859588988478 4.4592180445816485 21.393162383474543 0 0 0
410 7 2 0.06 20.658142040234495 2.5256541132627923 18.61588953977015 0 0 -1
403 7 1 -0.12 18.637896601637255 5.388542009006136 19.17708941724626 0 0 -1
659 11 2 0.06 17.694931020846646 9.447869218208146 15.481770939897732 -1 -1 0
1176 20 2 0.06 12.10804041016239 10.198363897190701 15.37866253989694 0 0 0
469 8 1 -0.12 20.396706016897685 9.255558475895123 19.13231009427259 0 0 0
484 9 1 -0.12 13.98015079798274 4.4226135138175815 19.223642958150336 0 0 0
488 9 2 0.06 12.787324332016134 3.2290678665219015 17.919552758267002 0 0 0
474 8 2 0.06 20.45700016820198 8.796460321402533 17.07285613072339 0 0 0
414 7 2 0.06 20.770403210899694 4.949276176718865 16.740562413838905 0 0 -1
487 9 1 -0.12 13.876832888005156 3.3341261383553342 18.184095680633924 0 0 0
390 7 2 0.06 15.311471034529717 9.8076115597497 19.00182569764271 0 0 -1
398 7 2 0.06 16.206968492074395 6.519697242239778 18.99524681814435 0 0 -1
431 8 2 0.06 16.27249845009132 0.7075265384281355 19.973931329497248 0 1 0
388 7 1 -0.12 15.31088927926941 9.518005002131005 20.06784104636853 0 0 -1
481 9 1 -0.12 12.932695238813782 4.2217190438449785 20.342477097451617 0 0 0
470 8 2 0.06 21.079352351913148 9.362351878700515 19.995696408085195 0 0 0
433 8 1 -0.12 18.40494669925085 0.801390444238915 20.029809840499052 0 1 0
495 9 2 0.06 15.256838511182368 1.4876514609300506 16.884412605786057 0 0 0
471 8 2 0.06 20.00800146702795 8.292970734019091 19.454852856837533 0 0 0
412 7 1 -0.12 21.248946255258026 4.197230667044109 17.258151915877697 0 0 -1
188 4 2 0.06 16.092336305763094 7.053349518434864 15.656417554529604 0 0 0
468 8 2 0.06 18.575177147248844 10.260993560138791 19.86111752710436 0 0 0
397 7 1 -0.12 16.731702216242393 6.8806372851310655 19.882552700467148 0 0 -1
467 8 2 0.06 18.976655167764203 10.516407895087195 18.152925150468224 0 0 0
430 8 1 -0.12 17.092447607592927 1.379437587776759 20.306749377642173 0 1 0
402 7 2 0.06 18.467520943614723 6.064837688153143 21.235234551667435 0 0 -1
409 7 1 -0.12 20.211740166507518 3.5056355033885183 18.231490105348662 0 0 -1
498 9 2 0.06 13.126655775288823 1.567137552340169 15.732166000131407 0 0 0
492 9 2 0.06 15.588186950148962 4.251399578320813 17.237371027780092 0 0 0
432 8 2 0.06 16.924517551082285 2.321428672618348 19.71353753664689 0 1 0
1006 17 1 -0.12 22.158058781003394 6.430894230411901 21.98518490689971 0 0 0
391 7 1 -0.12 14.648930962695793 8.192715900451718 20.47976485219571 0 0 -1
1170 20 2 0.06 11.316804112637639 7.301410379363654 17.625018037079553 0 0 0
411 7 2 0.06 19.2811635726344 3.2440582034434287 17.69697115932353 0 0 -1
1164 20 2 0.06 12.11747591395054 5.548854171901203 15.53107721842602 0 0 0
1162 20 1 -0.12 11.10978101986153 5.907089620536493 15.521742652241205 0 0 0
404 7 2 0.06 19.118478556458015 6.210805238751753 18.71148912666718 0 0 -1
415 7 1 -0.12 21.84841800175561 3.306213331191077 16.217933828757293 0 0 -1
486 9 2 0.06 14.98744537486944 4.444126682349358 19.612293528937425 0 0 0
401 7 2 0.06 17.305371499302595 4.978509264677896 20.685151570312275 0 0 -1
485 9 2 0.06 13.824667852529547 5.431646381094805 18.78727543875709 0 0 0
466 8 1 -0.12 19.406333349190334 10.430710837353809 19.17566573079908 0 0 0
1076 18 2 0.06 11.569405920085035 7.755578066057369 20.47036749174027 1 1 -1
393 7 2 0.06 13.948878933487482 7.831698232726325 19.65495293054216 0 0 -1
407 7 2 0.06 19.60520014967444 3.755627336072089 20.24687827763066 0 0 -1
183 4 2 0.06 19.49310773371758 5.8911961365618914 14.804374248036698 0 0 0
389 7 2 0.06 16.308812131959925 9.66517929046023 20.494305216434338 0 0 -1
660 11 2 0.06 19.232916243555724 9.920337080358022 14.830079872729096 -1 -1 0
399 7 2 0.06 17.336940393565378 7.715649192894757 19.6071151256204 0 0 -1
1008 17 2 0.06 21.158896261258825 6.88982168453479 22.020186391175386 0 0 0
493 9 1 -0.12 15.116209673250205 2.355941676529324 16.260034835583753 0 0 0
395 7 2 0.06 16.042677988797127 7.539867731009265 21.809895295393247 0 0 -1
408 7 2 0.06 20.61685296175888 4.8982963328671 19.865260622543886 0 0 -1
426 8 2 0.06 14.71297144202491 2.2040618515621855 21.659441413293145 0 1 0
309 6 2 0.06 13.616966284512495 -0.12361555797050683 20.41731091731515 0 0 -1
417 7 2 0.06 21.30027146525207 2.4326363040955146 16.00540663613336 0 0 -1
489 9 2 0.06 14.1624292863973 2.384633807144764 18.642746996901508 0 0 0
1003 17 1 -0.12 22.13704264055578 4.898192780995663 22.347183348107016 0 0 0
491 9 2 0.06 14.196302901301806 4.412426669222928 16.35263409204739 0 0 0
427 8 1 -0.12 16.91965271572522 1.966044157215748 21.71086684983907 0 1 0
482 9 2 0.06 13.032815732700968 5.08177065085406 21.040518912815145 0 0 0
425 8 2 0.06 15.753538893564663 3.6839457002873557 21.459367833176845 0 1 0
308 6 2 0.06 12.15226174810297 0.8344777706871225 20.12694282211739 0 0 -1
32 1 2 0.06 21.202182245189057 -0.22633559760912536 21.617457438655755 -1 1 -1
394 7 1 -0.12 15.626151644885269 7.104012362612873 20.916731667773906 0 0 -1
303 6 2 0.06 14.000483509242788 -0.1989813315899246 18.01224488734125 0 0 -1
396 7 2 0.06 15.011462813849668 6.224434211965873 21.172502489826517 0 0 -1
475 8 1 -0.12 22.25283533356774 7.8185009225418245 17.913396360349456 0 0 0
496 9 1 -0.12 14.055728272138841 1.9286939413944144 15.238662420204149 0 0 0
1165 20 1 -0.12 11.025704901580221 7.457977591410751 15.597080329844879 0 0 0
392 7 2 0.06 13.943295758225966 8.31130194894185 21.237340021519266 0 0 -1
1168 20 1 -0.12 11.801601393736583 7.92963741755052 16.865404918846842 0 0 0
1171 20 1 -0.12 11.620694181746089 9.433299155005642 17.259839032467095 0 0 0
477 8 2 0.06 21.700305677214853 6.91183210454709 18.136581129990393 0 0 0
306 6 2 0.06 11.16205114669691 -0.38995398697327777 18.50686734394749 0 0 -1
494 9 2 0.06 16.05651745023856 2.5145817211325165 15.718776282645045 0 0 0
438 8 2 0.06 17.64069350252146 -0.24166341074171904 18.19672760932835 0 1 0
182 4 2 0.06 18.332101285255728 6.628428399986603 15.988852997845303 0 0 0
473 8 2 0.06 21.66169924090059 9.993660880436106 17.55586354553233 0 0 0
301 6 1 -0.12 13.022865201752177 -0.44854717275876277 17.626931926591343 0 0 -1
658 11 1 -0.12 18.223314381123124 10.209716883668973 14.89177282652273 -1 -1 0
418 7 1 -0.12 22.20335770727741 4.120803840955388 14.931674623853995 0 0 -1
189 4 2 0.06 15.912968374186736 5.381122196818028 15.098482057800986 0 0 0
187 4 1 -0.12 16.14537904572761 6.426725961117381 14.781846372215135 0 0 0
181 4 1 -0.12 18.455828192543652 5.934515407325208 15.135621035124176 0 0 0
428 8 2 0.06 17.711685490773608 2.7295306914413877 21.89592886771884 0 1 0
386 7 2 0.06 14.570687341670638 10.491490192291213 21.78580086031248 0 0 -1
385 7 1 -0.12 14.676524669184547 10.659795714669338 20.754658906709135 0 0 -1
387 7 2 0.06 13.606982970331691 10.704852322471298 20.49858277560422 0 0 -1
1079 18 2 0.06 12.03370340927062 6.671229167758057 22.370673648625015 1 1 -1
1007 17 2 0.06 22.34409368673023 6.454045295661441 20.870139987510356 0 0 0
1077 18 2 0.06 10.904529766041962 9.21944025477104 21.317846419023248 1 1 -1
429 8 2 0.06 16.963993091175322 1.084243343394231 22.37701427041805 0 1 0
317 6 2 0.06 10.940570900769252 1.5081709278310904 22.012882823412074 0 0 -1
1001 17 2 0.06 20.021374893344262 4.719234980863041 22.3251373773112 0 0 0
943 16 1 -0.12 20.29386904065696 13.552366582677964 -0.1887972383120637 0 0 1
20 1 2 0.06 18.349980383413147 19.468599314151405 1.2916693421643815 -1 0 0
978 17 2 0.06 14.011798255209897 19.32933280295279 2.485418628456245 0 -1 1
3 1 2 0.06 15.321892144757884 11.611192044984145 3.926135224782156 -1 0 0
802 14 1 -0.12 20.499374231467982 11.906342175109566 6.000327265671554 -1 0 0
1023 18 2 0.06 17.577203453669057 19.648554900043624 5.257354514287991 0 0 0
28 1 1 -0.12 21.9358397437931 21.293470663973697 -0.17514199800556024 -1 0 0
8 1 2 0.06 15.850088748300085 15.286333870865999 3.6092543696400234 -1 0 0
808 14 1 -0.12 21.943743818225652 13.655903190891747 4.697114282762193 -1 0 0
979 17 1 -0.12 15.748637688226491 20.562866589125953 2.449432080936992 0 -1 1
225 4 2 0.06 11.266449249362205 16.14357445413284 5.086553576613721 0 0 0
230 4 2 0.06 12.470652384651055 17.485914142670776 2.649023582774325 0 0 0
237 4 2 0.06 12.280868397170014 19.213508874541745 0.8561746904461347 0 0 0
948 16 2 0.06 20.072651322543656 12.350978369166047 1.524200814997728 0 0 1
224 4 2 0.06 12.849303403015629 15.61097979929582 4.477592696922893 0 0 0
1031 18 2 0.06 20.157350176823876 21.12493022960657 6.137742656435967 0 0 0
235 4 1 -0.12 11.383272079045081 18.792319181164565 0.36982938468879234 0 0 0
30 1 2 0.06 22.04538785999387 21.926797599670515 0.6965440942479484 -1 0 0
975 17 2 0.06 14.154387411290859 21.820115453444714 4.403978910544145 0 -1 1
947 16 2 0.06 20.60844879231523 11.48709966740857 0.1724045223059254 0 0 1
972 17 2 0.06 11.93310423086786 20.81740054262731 4.120024601633341 0 -1 1
9 1 2 0.06 16.25046088291182 14.612349490996094 2.0474979625974283 -1 0 0
812 14 2 0.06 21.427119987482296 15.703308374582058 4.794281389472663 -1 0 0
806 14 2 0.06 19.966071689662378 13.874376513766663 5.297080227903732 -1 0 0
23 1 2 0.06 20.560217381063815 20.2258679188667 1.9118757655956609 -1 0 0
25 1 1 -0.12 20.65403273547299 20.48066725622902 -0.17139638960295894 -1 0 0
811 14 1 -0.12 21.827083119743765 15.04967393628747 4.039395303080263 -1 0 0
969 17 2 0.06 11.144334019037426 20.549532378261944 6.140299148547001 0 -1 1
973 17 1 -0.12 14.031568119631268 20.75914151363082 4.296285905059462 0 -1 1
1034 18 2 0.06 22.175935149935835 20.143628598843655 4.060972945218307 0 0 0
976 17 1 -0.12 14.241355520166234 20.39781222399481 2.852995490972691 0 -1 1
7 1 1 -0.12 16.624568899417593 14.745965063203341 3.079833877073215 -1 0 0
18 1 2 0.06 20.061080870274207 17.034134258943915 2.1068802011126584 -1 0 0
229 4 1 -0.12 11.437807563438824 17.18559606881232 2.4010743931980647 0 0 0
14 1 2 0.06 16.932212553299816 17.082557779535314 2.209256667959096 -1 0 0
807 14 2 0.06 20.22916237619979 12.754183082318749 3.943873226644116 -1 0 0
12 1 2 0.06 18.5439721313418 14.671614801618153 2.399389944974 -1 0 0
13 1 1 -0.12 17.891418316039392 16.601197101024955 2.0480480881494607 -1 0 0
1027 18 1 -0.12 20.26132965839301 19.022629522028108 5.727697250494594 0 0 0
944 16 2 0.06 19.623342019731112 14.30881309482976 0.17602130506374336 0 0 1
801 14 2 0.06 18.369816117629625 11.93722063030256 6.229028252017732 -1 0 0
1021 18 1 -0.12 17.73814339019206 18.69345718635072 5.660437429123719 0 0 0
375 7 2 0.06 14.876107988317552 15.613575014292618 -0.48315416075186507 0 0 0
799 14 1 -0.12 19.144166316609688 11.192929121533504 5.989251196085166 -1 0 0
259 5 1 -0.12 11.812933959953874 11.038492439665806 0.9808156578939624 0 0 1
1029 18 2 0.06 20.473771991726476 18.365242465308185 4.857747859183607 0 0 0
1022 18 2 0.06 16.75148364477601 18.19556654352809 6.074837192729286 0 0 0
226 4 1 -0.12 11.30662043603932 15.762715689337771 2.9690969054558023 0 0 0
939 16 2 0.06 21.539592768786797 16.184257670360836 0.10467258537516466 0 0 1
16 1 1 -0.12 19.127612573382358 17.617650380464454 2.0874505489223827 -1 0 0
946 16 1 -0.12 19.939695074692512 12.29659083903401 0.5061739426577709 0 0 1
1 1 1 -0.12 15.399615564689846 12.67304473490052 3.5177219747353172 -1 0 0
19 1 1 -0.12 19.130902803541275 18.77433315418803 1.0821241666275392 -1 0 0
2 1 2 0.06 14.59251369718827 13.157202294536468 4.1358309664779895 -1 0 0
10 1 1 -0.12 17.955149438202692 15.360488672490192 2.907176638259216 -1 0 0
1032 18 2 0.06 19.69002297837001 20.724830911040243 4.522023725684306 0 0 0
227 4 2 0.06 11.760741814847572 15.037761489576447 2.2927962067642826 0 0 0
980 17 2 0.06 16.034269284239507 20.054891294370286 1.5145035894978847 0 -1 1
222 4 2 0.06 11.518491598064298 13.269099548973776 4.13196420322398 0 0 0
21 1 2 0.06 19.069940837366076 18.307370510810394 0.14078312657598657 -1 0 0
1024 18 1 -0.12 18.96998468041286 18.615647170427597 6.489577865482479 0 0 0
27 1 2 0.06 19.79517862629165 21.1603010654469 -0.30891615090448604 -1 0 0
11 1 2 0.06 18.41742112684067 15.511184274534468 3.8414432810819434 -1 0 0
950 16 2 0.06 17.83846786183879 12.512513172743505 0.4653637442284233 0 0 1
968 17 2 0.06 12.487266337528235 21.595636037457712 6.58936450774892 0 -1 1
949 16 1 -0.12 18.509844257035255 11.736877066823029 0.19308419722282377 0 0 1
217 4 1 -0.12 11.977839380211579 13.477794983018956 6.163606490920814 0 0 0
803 14 2 0.06 21.279780822669977 11.167511472915688 5.747840625199027 -1 0 0
17 1 2 0.06 19.053017453352886 18.01362289781813 3.041924436765262 -1 0 0
982 17 1 -0.12 16.27386784316066 21.999045633468075 2.491886553358399 0 -1 1
15 1 2 0.06 17.649163032389623 16.283150955304414 0.9969662091382878 -1 0 0
971 17 2 0.06 12.482278306526219 19.175084145241495 4.507129000386974 0 -1 1
218 4 2 0.06 13.049318412328436 13.44623484876619 5.954326670325376 0 0 0
223 4 1 -0.12 11.798401920934545 15.485326578464395 4.391637610442302 0 0 0
974 17 2 0.06 14.806235007372296 20.231813084186243 4.8185794401876585 0 -1 1
805 14 1 -0.12 20.576906231050877 13.059232419457011 4.939765672426188 -1 0 0
813 14 2 0.06 21.10790367144635 15.068063287553503 3.3707551878973 -1 0 0
24 1 2 0.06 21.360063618614415 18.921815339265702 1.2126461604995844 -1 0 0
4 1 1 -0.12 16.762198780727704 13.354595980327334 3.711524399698159 -1 0 0
1030 18 1 -0.12 20.438478753402865 20.560126543925524 5.24317375901999 0 0 0
1028 18 2 0.06 21.11972206215334 18.816214882239635 6.416848589128644 0 0 0
970 17 1 -0.12 12.59345716871036 20.257011612644497 4.726617444462425 0 -1 1
234 4 2 0.06 11.923617694930877 16.65103077100343 0.3410538694830877 0 0 0
977 17 2 0.06 13.65731617066449 21.15624280215115 2.3406868816275996 0 -1 1
260 5 2 0.06 12.691801956491943 11.679596128231324 1.1602389453060196 0 0 1
5 1 2 0.06 17.654414592841498 12.858929796053234 3.301226670799112 -1 0 0
981 17 2 0.06 16.349849515248668 19.9209908140268 3.149819256340102 0 -1 1
6 1 2 0.06 17.080385850706126 13.453833140273467 4.771597593911131 -1 0 0
22 1 1 -0.12 20.481712500278302 19.575127175364685 1.0546139542151987 -1 0 0
1038 18 2 0.06 21.28101080162704 22.071336403564885 3.097091146857498 0 0 0
987 17 2 0.06 18.523113194432245 21.69748781486567 2.393154079845569 0 -1 1
255 5 2 0.06 12.040690408492134 13.596193246881203 -0.25658423510020095 0 0 1
214 4 1 -0.12 11.641992729939536 12.018411660848532 6.583393721302198 0 0 0
1026 18 2 0.06 19.04500852996884 17.627981078629222 6.914207290931373 0 0 0
967 17 1 -0.12 12.249616493282419 20.621276071153066 6.179656278121045 0 -1 1
216 4 2 0.06 11.952574956749313 11.233268954106114 5.901817998899688 0 0 0
315 6 2 0.06 11.867990479689873 22.165043349442165 0.5820147348881775 0 -1 0
940 16 1 -0.12 21.693796714370126 14.039753562203398 0.1771174728218281 0 0 1
942 16 2 0.06 21.703892651935817 14.412321127027333 1.2003879644446949 0 0 1
1033 18 1 -0.12 21.77132204605712 20.966929665806486 4.714719178282656 0 0 0
1036 18 1 -0.12 21.807198907302467 22.278136975797835 4.011668654258407 0 0 0
937 16 1 -0.12 22.029405220249256 15.388842250256754 -0.47744225616439306 0 0 1
366 7 2 0.06 17.117738589085782 19.772405132004963 -0.5855006806373516 0 0 0
220 4 1 -0.12 11.370517894412735 14.06234797329892 4.8532324757895156 0 0 0
369 7 2 0.06 15.109219112704007 18.196249801532087 -0.011392743246119053 0 0 0
804 14 2 0.06 20.670551456225674 12.24656453486408 7.02490850265681 -1 0 0
232 4 1 -0.12 11.26006053818318 17.376369343620052 0.8854866989781554 0 0 0
219 4 2 0.06 11.868027241930557 14.25069891888554 7.017866474326356 0 0 0
985 17 1 -0.12 17.698549813915996 22.23470888744013 1.9269349570499514 0 -1 1
959 16 2 0.06 15.432294301211009 11.517252835251382 0.8457459795221356 0 0 1
986 17 2 0.06 17.75985957601792 21.8559253661435 0.9356526734382842 0 -1 1
966 17 2 0.06 12.478830748593463 18.58210400433168 6.95062027439183 0 -1 1
253 5 1 -0.12 11.206268002915916 12.940091382231515 -0.5191527306702083 0 0 1
639 11 2 0.06 19.533704536937258 18.677158172197657 12.331420168686323 -1 -1 0
628 11 1 -0.12 22.343254217005633 20.833602045985337 10.248000690855477 -1 -1 0
590 10 2 0.06 11.729944757817874 15.291773960779473 10.548256451192398 0 -1 0
641 11 2 0.06 20.815501574629003 17.963641424045317 14.369560888231694 -1 -1 0
587 10 2 0.06 13.26441396189097 15.5654667926738 13.153986934863097 0 -1 0
965 17 2 0.06 13.806905368445397 19.67010910169231 7.376611729326045 0 -1 1
636 11 2 0.06 22.109169381385218 19.303595191817443 12.34844917371708 -1 -1 0
769 13 1 -0.12 13.383373685771298 20.539922820842644 14.415922613891484 0 0 0
632 11 2 0.06 20.29145582840127 20.254249377595514 10.570108363297441 -1 -1 0
964 17 1 -0.12 12.698828149331538 19.587875446002464 7.207216031996709 0 -1 1
653 11 2 0.06 19.15339516277188 12.54973622565984 13.891847493568429 -1 -1 0
765 13 2 0.06 15.855149619357164 19.851364209504204 13.429872243873765 0 0 0
586 10 1 -0.12 12.346195823533026 15.428463004865574 12.618883087923281 0 -1 0
591 10 2 0.06 13.059838374267295 14.288384052174003 11.015164312812047 0 -1 0
126 3 2 0.06 17.684262011668242 21.196544454434942 14.105454394645804 0 0 0
670 12 1 -0.12 21.253008581435612 13.161115640585306 11.109045887278342 -1 0 0
751 13 1 -0.12 17.692848961420403 22.14937826566542 9.350284740518646 0 0 0
627 11 2 0.06 20.93370931099958 22.21314500829904 9.234449306109967 -1 -1 0
594 10 2 0.06 12.895752966728066 17.343058488557826 10.688564374495934 0 -1 0
583 10 1 -0.12 11.687584525918362 14.145148593499442 13.154543584237759 0 -1 0
763 13 1 -0.12 15.153543102095744 20.186410259127406 12.616466672935058 0 0 0
768 13 2 0.06 13.56457708005678 21.682690190884262 12.371009043290334 0 0 0
961 17 1 -0.12 12.08405413418404 20.120877755317995 8.563636922886683 0 -1 1
757 13 1 -0.12 16.9802378698811 19.999363804995145 10.84470907743908 0 0 0
589 10 1 -0.12 12.635849630468615 15.286662160872128 11.144036848405891 0 -1 0
773 13 2 0.06 12.806178126540647 18.73668085700203 13.473394946830224 0 0 0
203 4 2 0.06 12.201960434697677 11.432543176914482 11.070440982726494 0 0 0
766 13 1 -0.12 14.182655479813565 21.20441397171128 13.240070504411083 0 0 0
774 13 2 0.06 11.761743118762887 20.057176705582307 12.989089994137673 0 0 0
962 17 2 0.06 12.338285045421065 21.10656325519194 8.863224092590443 0 -1 1
760 13 1 -0.12 15.673836337041791 20.69057999410632 11.284698125842311 0 0 0
762 13 2 0.06 14.91344517253178 20.490395751460955 10.58485214716672 0 0 0
634 11 1 -0.12 21.59221183335201 18.74974602268888 11.615513853415738 -1 -1 0
211 4 1 -0.12 12.250215106676444 11.802112424464054 8.010306952399915 0 0 0
651 11 2 0.06 17.782828451942002 14.408605420132549 14.489588524919887 -1 -1 0
643 11 1 -0.12 19.358127579703936 16.481781146469476 14.187163901126286 -1 -1 0
593 10 2 0.06 14.372102571506607 16.620462273729018 11.164335261305839 0 -1 0
756 13 2 0.06 16.921377995611238 20.17138684348285 8.714901930359481 0 0 0
676 12 1 -0.12 21.809966338359526 15.43049500963863 9.88393373419959 -1 0 0
642 11 2 0.06 21.531431177390694 16.667248940518164 13.401335182637448 -1 -1 0
638 11 2 0.06 20.245201675094176 17.209096800148796 11.467222058751869 -1 -1 0
673 12 1 -0.12 20.730271673852823 14.29761915174569 10.178097849788404 -1 0 0
633 11 2 0.06 21.108208799150766 19.10695815011146 9.668997805191571 -1 -1 0
640 11 1 -0.12 20.56567115038023 17.189084373189754 13.555173451475893 -1 -1 0
764 13 2 0.06 14.59409761923534 19.25114459938379 12.332901481653748 0 0 0
595 10 1 -0.12 13.76348541404733 16.15125036611356 9.079430291382396 0 -1 0
674 12 2 0.06 20.004093456132892 14.939921245348852 10.808685440104613 -1 0 0
675 12 2 0.06 20.27432040415977 13.930580140548836 9.28775138261914 -1 0 0
645 11 2 0.06 18.623391363785835 16.42119185184013 13.437941584364637 -1 -1 0
671 12 2 0.06 21.269815120185577 13.431429444860594 12.159147424767456 -1 0 0
599 10 2 0.06 15.368933922249234 15.144426862693612 8.035066494224324 0 -1 0
631 11 1 -0.12 21.29861601089589 19.761745176783823 10.55033909835733 -1 -1 0
600 10 2 0.06 14.18793403296453 13.959703319522434 8.783204830781209 0 -1 0
212 4 2 0.06 11.841801726184233 12.504380107348059 8.733126372933125 0 0 0
672 12 2 0.06 22.256491743700657 12.975353171501053 10.865608848729906 -1 0 0
597 10 2 0.06 12.827719056372516 15.871594881264514 8.550430853329734 0 -1 0
677 12 2 0.06 22.210733067953218 15.682591603744168 10.890443247787227 -1 0 0
637 11 1 -0.12 20.36903301098676 17.997000728738563 12.223003400896276 -1 -1 0
767 13 2 0.06 14.875323360150931 21.98684890205344 13.708264979916201 0 0 0
758 13 2 0.06 16.827599173042405 18.984857211293303 10.662145591236792 0 0 0
588 10 2 0.06 11.732384109450612 16.258229178499413 12.810931855077625 0 -1 0
761 13 2 0.06 15.864902054658874 21.780648812332352 11.306116415891072 0 0 0
596 10 2 0.06 14.20704648965941 16.982784028638864 8.516638164806366 0 -1 0
598 10 1 -0.12 14.711777109955882 14.92607806015269 8.919573098596931 0 -1 0
123 3 2 0.06 20.17476837790106 20.47573098510818 13.839180698009363 0 0 0
213 4 2 0.06 13.336844879863044 11.955043185724117 7.905717240643126 0 0 0
963 17 2 0.06 12.397711018155274 19.426359753338982 9.397058963090215 0 -1 1
585 10 2 0.06 12.387228364572863 13.28349596152242 13.044507052626713 0 -1 0
754 13 1 -0.12 17.608334709911553 20.58401075480741 9.49868136349786 0 0 0
625 11 1 -0.12 21.959268972655114 21.741597612325947 9.094400671372636 -1 -1 0
759 13 2 0.06 17.68483915721371 20.132099920803974 11.765062546424602 0 0 0
772 13 1 -0.12 12.272194899600802 19.64201126809173 13.84660758221221 0 0 0
667 12 1 -0.12 20.343768060230502 11.898968886502553 10.840657115586424 -1 0 0
592 10 1 -0.12 13.451955339353928 16.390258486232135 10.575966624753406 0 -1 0
124 3 1 -0.12 18.560759135716935 21.726605734084096 14.468471135789983 0 0 0
626 11 2 0.06 21.968320963982993 21.176217797925318 8.190828832279626 -1 -1 0
668 12 2 0.06 20.417472909458503 11.64902239752172 9.79498993011677 -1 0 0
584 10 2 0.06 11.572891074482813 14.204621884769493 14.222245646578319 0 -1 0
749 13 2 0.06 19.30221067520511 22.21878075836989 8.06925355687808 0 0 0
678 12 2 0.06 21.287983229011825 16.383163414137837 9.528606481668154 -1 0 0
669 12 2 0.06 19.30199447403632 12.20600736407973 11.058231925165343 -1 0 0
755 13 2 0.06 18.518927102113118 20.036277577156497 9.49877769878186 0 0 0
1025 18 2 0.06 18.825647446505204 19.313216544972903 7.300121721618678 0 0 0
648 11 2 0.06 20.531684949622036 14.69876341141988 14.256292194510754 -1 -1 0
750 13 2 0.06 17.84968269563146 22.376269140474243 7.097605712782311 0 0 0
635 11 2 0.06 22.361130635440915 18.06250243277101 11.227566225010499 -1 -1 0
666 12 2 0.06 20.78093604011016 10.97057638246484 12.682911381576998 -1 0 0
121 3 1 -0.12 19.744569539898002 20.83375966273213 14.712121205300118 0 0 0
459 8 2 0.06 20.813985131371673 14.315245304193859 19.909375098075774 0 0 0
441 8 2 0.06 19.900582665934092 21.601036001809696 17.77274074679339 0 0 0
445 8 1 -0.12 19.862246361936343 19.450637029767584 19.21780259525676 0 0 0
775 13 1 -0.12 11.283056510710328 19.220472262881856 14.910463058548547 0 0 0
383 7 2 0.06 15.35915087502573 12.359466165657304 19.592606844474638 0 0 -1
1185 20 2 0.06 12.829312991976622 14.176405509684008 17.79979368099026 0 0 0
1190 20 2 0.06 13.299598917457844 16.88551625359676 17.27943719449277 0 0 0
439 8 1 -0.12 19.51002595336264 21.947587946188353 18.735816237927555 0 0 0
655 11 1 -0.12 17.991793601933487 11.665098369193602 15.413921875408093 -1 -1 0
450 8 2 0.06 18.977885020648955 18.07076397897124 20.613058423009807 0 0 0
254 5 2 0.06 11.336068691775449 12.369164485678896 21.626522239066734 0 0 0
377 7 2 0.06 16.712827697973044 14.343951973868243 21.15531519989371 0 0 -1
248 5 2 0.06 11.367825341903961 14.906685063855763 20.719975704692384 0 0 0
1194 20 2 0.06 15.176843908909559 17.69970152867392 15.903137939385296 0 0 0
446 8 2 0.06 20.85462080978615 19.554492137855764 19.759167527538796 0 0 0
371 7 2 0.06 17.025230589602526 16.947466067854204 21.9249563038968 0 0 -1
310 6 1 -0.12 11.766835223565883 22.20496975975136 21.417548977950265 0 -1 -1
938 16 2 0.06 21.51241464719096 15.450479062296239 21.613518464476993 0 0 0
33 1 2 0.06 22.318040708184114 21.545346997406863 20.80169659680995 -1 0 -1
1179 20 2 0.06 11.170049488295843 12.181978290211559 16.111574971743167 0 0 0
465 8 2 0.06 20.77191951895351 11.855024852092976 18.513102991232152 0 0 0
656 11 2 0.06 17.72532074181178 11.793432899365989 16.509591422019053 -1 -1 0
304 6 1 -0.12 12.165368196531054 22.325030369811106 18.864081473330437 0 -1 -1
442 8 1 -0.12 18.954031862190174 20.718038527873908 19.47221727224565 0 0 0
302 6 2 0.06 13.220481542825933 21.641634467288437 17.113991767613612 0 -1 -1
452 8 2 0.06 20.001646981520036 17.024636224350722 17.944103921186525 0 0 0
455 8 2 0.06 18.233692446664598 15.659258449573834 18.859909861299855 0 0 0
447 8 2 0.06 20.23372781179945 19.5455610953603 18.21789831367884 0 0 0
379 7 1 -0.12 14.847523282131275 13.345711366058293 21.236406831561702 0 0 -1
462 8 2 0.06 18.544846251772768 12.925894625045077 20.17459363508781 0 0 0
770 13 2 0.06 14.027393268794471 19.96289095687887 15.113724752179573 0 0 0
460 8 1 -0.12 19.107278593853113 12.973691135050487 19.280092706824625 0 0 0
367 7 1 -0.12 15.44450967342609 18.390234370463837 21.956946008561555 0 0 -1
464 8 2 0.06 20.653691721683252 11.807088558352097 20.267663603713718 0 0 0
1191 20 2 0.06 14.62607177325415 16.1972498976809 18.462674241939766 0 0 0
453 8 2 0.06 20.9571382113585 16.920448368754315 19.513740078597152 0 0 0
1195 20 1 -0.12 15.213491989255063 18.902334637755615 17.64334065212437 0 0 0
378 7 2 0.06 15.804444905658563 14.729972166284362 19.836712926031662 0 0 -1
440 8 2 0.06 20.42884717311893 22.129598741261578 19.167147063162176 0 0 0
1188 20 2 0.06 15.338584442963212 14.50923713326173 16.870334968166194 0 0 0
1199 20 2 0.06 15.864920425463474 20.506633759847023 16.289321418345025 0 0 0
1193 20 2 0.06 16.22350816975837 17.118135272487976 17.093022730786892 0 0 0
457 8 1 -0.12 19.938067132406363 14.354805510680134 19.160615222125056 0 0 0
1192 20 1 -0.12 15.321008618136869 17.511630937369166 16.93208662456446 0 0 0
650 11 2 0.06 18.2475835081609 14.422829902731474 16.227398737197717 -1 -1 0
365 7 2 0.06 16.652987641583984 19.80716076136093 20.807160349450346 0 0 -1
376 7 1 -0.12 15.72621115484176 14.566837212772224 20.89112123763407 0 0 -1
1178 20 2 0.06 11.938750362991595 12.014246914897546 17.649384493801243 0 0 0
644 11 2 0.06 18.923315014623938 17.105255048054506 14.913677000292848 -1 -1 0
456 8 2 0.06 18.9985217441284 15.70169683833408 20.499477579259025 0 0 0
458 8 2 0.06 20.449443637649047 14.381434508860371 18.23362834472838 0 0 0
449 8 2 0.06 18.128966267021642 18.243849660105585 19.046362251296888 0 0 0
448 8 1 -0.12 19.132378304128192 18.158592649038646 19.493174290253485 0 0 0
382 7 1 -0.12 15.38259034263287 12.079146379820795 20.569396102620008 0 0 -1
363 7 2 0.06 14.34898281543056 20.860127823540786 21.51261070303485 0 0 -1
461 8 2 0.06 18.374765503006564 12.964240754763674 18.484335010864285 0 0 0
1184 20 2 0.06 12.343888010901555 14.774033267853653 16.263734238229556 0 0 0
1186 20 1 -0.12 14.429488478588016 15.022333384726698 16.63009624655267 0 0 0
1187 20 2 0.06 14.71249457598181 15.267550054657535 15.617489888778064 0 0 0
951 16 2 0.06 18.458148859157067 11.449963414313697 22.184724588718787 0 0 0
443 8 2 0.06 18.901716740740095 20.871787027431523 20.556433697240386 0 0 0
370 7 1 -0.12 16.087196367617164 17.08114885619829 21.39076767088521 0 0 -1
454 8 1 -0.12 19.190369732547747 15.67470677389575 19.402829768231662 0 0 0
305 6 2 0.06 12.144641450089672 21.23074497204865 18.98014055382117 0 -1 -1
654 11 2 0.06 19.9074721705941 12.618413017531642 15.54785332842598 -1 -1 0
647 11 2 0.06 20.423497047720097 15.386544529928283 15.818434790833376 -1 -1 0
451 8 1 -0.12 19.90709563437419 16.973662627408306 19.03994664273048 0 0 0
374 7 2 0.06 14.152541349851443 16.16373669126064 21.230364893537892 0 0 -1
776 13 2 0.06 11.815545437236494 18.493721333927063 15.530512653937897 0 0 0
372 7 2 0.06 16.25298028980431 17.317803142452135 20.350778077553407 0 0 -1
945 16 2 0.06 20.17493021072777 13.440770486899394 21.831183260321676 0 0 0
368 7 2 0.06 14.492408127242037 18.516046072006148 21.42237754174153 0 0 -1
1196 20 2 0.06 15.457966476127986 18.757937891052528 18.675444073294514 0 0 0
1180 20 1 -0.12 13.300295822862104 12.76910626549317 16.251644320163084 0 0 0
1200 20 2 0.06 16.35674681518918 20.635632563692813 17.825942892759702 0 0 0
1183 20 1 -0.12 13.09843207019213 14.236249353176804 16.801980812092925 0 0 0
444 8 2 0.06 17.976673167435823 20.484886256057674 19.138190003752182 0 0 0
1198 20 1 -0.12 16.20564730176845 19.899993352095635 17.103596424834404 0 0 0
1189 20 1 -0.12 14.328657461946618 16.406447434782745 17.438674465944583 0 0 0
373 7 1 -0.12 15.166383341756978 15.90081524758557 21.5634163298476 0 0 -1
122 3 2 0.06 20.447910412713988 21.41572297816897 15.1858718472387 0 0 0
1197 20 2 0.06 14.252216174047254 19.30602577226173 17.73610227105313 0 0 0
364 7 1 -0.12 16.248336240169536 19.761061659009496 21.80782438033816 0 0 -1
463 8 1 -0.12 20.07276827406524 11.775873178926135 19.307510824008 0 0 0
311 6 2 0.06 11.968424923964466 21.0588867875031 21.498680295386997 0 -1 -1
381 7 2 0.06 13.76843494857977 13.532494790742492 21.17721419932388 0 0 -1
1182 20 2 0.06 14.193919461653678 12.289456396432739 16.694358655846763 0 0 0
1181 20 2 0.06 13.427321857952176 12.576625621220064 15.200585962121462 0 0 0
125 3 2 0.06 18.23088082939332 22.062614903757936 15.435992542124499 0 0 0
1177 20 1 -0.12 12.109725916738233 11.901162235875637 16.59069913209386 0 0 0
362 7 2 0.06 15.707127065097875 21.907371711175383 22.121137040251575 0 0 -1
652 11 1 -0.12 19.00698090551861 12.750370013744977 15.003828616663727 -1 -1 0
649 11 1 -0.12 18.60990624889155 14.210144147945472 15.196334913641623 -1 -1 0
646 11 1 -0.12 19.811214510953608 15.200935564864288 14.884838912145161 -1 -1 0
384 7 2 0.06 16.44770369925356 11.993416506411545 20.625393960187562 0 0 -1
361 7 1 -0.12 15.306163064591086 20.92650868723464 22.01926602161045 0 0 -1
26 1 2 0.06 20.693906307721978 19.769414032647198 22.022567741208665 -1 0 -1
657 11 2 0.06 17.040393984055346 11.715011732717205 14.819388394628266 -1 -1 0
31 1 1 -0.12 22.124195997525756 22.197595961156434 21.661012139023295 -1 0 -1
771 13 2 0.06 12.816413649722065 21.28023166440406 15.034465390931695 0 0 0
777 13 2 0.06 11.105402035796642 20.101816616353698 15.601043495658175 0 0 0
236 4 2 0.06 11.427132442609803 18.9026369234636 22.351076666791492 0 0 -1
380 7 2 0.06 15.03957284187292 13.119195626824359 22.256661654626146 0 0 -1

Velocities

718 -0.0015071026497344197 -0.007113188034923573 0.0012031576463455657
36 -0.012003657232654744 -0.004986318525102145 -0.01613641419653826
318 0.004618336298831866 -0.00700959287166559 0.01249758928931364
609 -0.005739358051954468 0.022235181083978536 0.004514437866687767
275 -0.003491632716670283 0.0013776629124485687 0.02251890073157007
602 -0.0038469706278034545 -0.005585807040773724 -0.004071447207181466
1070 -0.007421725020074324 -0.003923263686981304 -0.0006590325307680994
331 -0.0036975029651851476 -1.3495516903267479e-06 0.003468576117203895
1143 0.01732138086306793 -0.005518129435633847 0.03774173921647919
717 0.0060553446999464244 -0.012208928997149175 0.01215939723507127
615 0.016797357756067405 -0.011636001553024515 -0.020908308275358233
1051 0.005944586411401231 0.0007254401095896652 0.0035048798946030898
280 0.0027374762757536326 -0.006941521568235173 0.00260094374865509
712 -0.0040085842272850345 0.0008222339542483604 0.0010837628208429232
1052 -0.0056538259827388585 -0.008417382393958882 -0.007165325938653689
720 0.024587713684964003 0.00025757666724625546 -0.01487725328856685
1057 -0.0007126395854964661 -0.0016943338515881224 -0.002814620558247242
707 -0.0031978548589206247 0.01532630443086605 -0.01417332015479661
705 0.015178649754295472 -0.005337426948104229 -0.005056146802741671
603 0.00934154087255162 0.004421412475020844 -0.0051583389152425945
267 -0.008907812992943277 0.0010607973365617076 -0.007178594776984036
1061 -0.012013262575832604 1.389327226706507e-05 -0.00455190119547134
836 -0.030619318436110956 -0.018559436921167183 0.01117977186772325
1042 -0.0043616755195072104 -0.001679649014347027 0.00333399037531031
716 -0.03255201837985746 0.0019993062235938853 0.00952699058340168
1141 -0.0037021175357073235 0.0012348962920739497 -0.006800311358773952
277 0.0007493993318186083 -0.002467586673811294 0.008380002523021103
607 -0.004206520062159062 0.009941733532319403 0.003970995410732637
1039 -0.0034424939734869994 -0.0029444856098310426 0.00039807978936563435
1046 -0.016475027325681034 0.018864144083894724 0.0021461987921254765
1055 0.017566850810980944 0.011207410025116705 -0.014104086450739692
1050 0.0276379308704889 0.016623584975641998 0.018686875109132445
605 0.0326506821169531 0.009650272519919649 -0.02938954314678081
614 -0.012945675517056887 0.011995302067298924 0.02158944540198393
325 -0.0018847193151769889 0.006084660692626174 0.002105868656923001
269 0.009329032299426238 -0.012116093560337769 0.0034109198381142014
710 0.014443435652764626 0.031733598624695325 -0.02045066983374721
161 0.00716123425517335 -0.03605151973694307 0.012079321107435287
706 -0.003598754940134959 0.008499804136339993 0.0025519670603122097
837 0.004657296605492611 0.0016390817117422508 0.02623832278474642
326 0.025595556041029227 0.012776944917707351 -0.012767373856794714
704 -0.010279101133596997 0.023848481439483548 0.030448613089499324
1064 0.004950805810696178 -0.0015074029894572736 0.03784352865305629
604 0.0034711501749531124 -0.004059264048558657 0.0003319913983571423
719 -0.003229563809130834 -0.020493669164439086 0.024155786169504815
1043 -0.012432063255614035 0.004012904322259397 -0.018612872423337475
327 -0.02174685499567935 -0.005331833222729245 -0.022386372454081423
714 0.008384685380670671 0.004977328788693411 0.028343793631981636
711 0.00015418251722870601 0.03937334140120926 -0.015015657790500403
278 0.018812734976704288 -0.0044089420955351144 0.006657896577696448
1067 -0.0034201633448877776 -0.005010111833615437 0.0027824413001867397
606 -0.00122526083280758 0.0061139881580914105 0.015904585719670527
725 -0.006648670261310527 -0.004117919126250313 -0.011586543729731932
1045 0.0036652628159086543 -0.004391115894701299 -0.011506149321976383
1047 -0.007920375668763588 0.017302493211868133 -0.025125403418850674
1048 -0.002315778528821431 -0.002737379230809578 -0.0008518089695417167
273 0.009134172643587827 -0.016499205543712443 0.008983325807396239
1009 -0.002052778248274563 -0.0026998091817602423 0.0014064296395115289
1053 0.0031104553526260983 -0.024878340836837685 -0.04068492363437357
709 -0.005260120510005862 0.00024101908609206992 0.005075174805692018
276 0.0029655395153879473 0.002203228814950369 0.02109349625527324
713 0.006970296502813681 -0.012785450950963322 -0.025863355900946378
708 0.02355080613402292 0.025465979740847113 -0.006376719141183062
1056 0.0013048559647495077 -0.009167561667450716 -0.012082375514671746
1049 -0.01952896161149276 -0.0017127645326770078 -0.007357374527051217
613 0.00033613412863584176 0.0010582556065132616 -0.0012061961820137277
1142 -0.002377273474817301 0.018248680078909563 -0.007728919758293116
270 -7.64643356842807e-06 -0.0016907069067896147 0.00305970008397627
715 -0.0050968528807397665 0.0008382187279390193 -0.004764360924692039
265 -4.310677348865489e-05 -0.004079040342749698 0.008881436839495053
1058 -0.005774130179914876 -0.0049661224519321765 -0.018922258323184192
1044 0.0006585572199864471 0.0029340858541303384 0.012204837056867975
274 -0.004738585891777245 0.007769682985982134 -0.004521571400718671
1015 -0.0036468381899445457 0.0019450432581277158 -0.006920197874607985
272 0.005506585636719553 0.005011725266870543 -0.0059998129654146
1054 7.627657665412361e-05 0.003992487473062312 -0.006938778077366395
601 -0.0026262767344235466 -0.002661091908626829 0.0035322217619948837
1016 0.01447201480715413 -0.007156299125781339 -0.0009500116581132344
279 -0.012010260080140783 -0.019745835810030546 -0.03183736628273081
610 0.0037209405394614445 0.0012124642578249995 0.009679314435633024
608 -0.03049607504144972 -0.0008510358783406375 -0.016714620849913094
266 0.0005650952565533282 0.00694284823024039 0.01581082179894277
835 -0.006275883691993294 -0.0065329772154551925 0.005861465619322677
703 0.003899222066564409 -0.010025397724233862 -0.0036482765590954065
271 0.0030628119876110254 -0.006355622583434906 0.001288554833751014
268 -0.0052995153154578685 0.006587285132124575 0.0008637514004026974
838 -0.004736273101261554 -0.008809566499457916 -0.007995557069873826
1059 0.024986108290831664 -0.021431719363080904 -0.006261014884116207
1063 -0.004238218856173381 -0.0014032078107762806 -0.006638430541395831
332 0.008226939230624106 -0.004427669894663205 -0.014687675901794508
1065 -0.010407314182623343 -0.007621720751613622 0.005672855453032667
1040 0.020237249154830925 0.005976443547177911 0.0008336622879413129
611 0.019138397210539695 0.00981513442966414 -0.01677915033879871
328 0.005653388423145523 -0.003337108674085345 0.005128885534486886
1060 0.004147721668680098 0.002752673756054024 0.004327315803023812
330 -0.0023154731128046556 0.024795094273879395 0.009893930447726523
723 -0.007179635958362029 0.011908547746107284 -0.006067313995331831
1005 -0.03504381572162292 0.016802497932561496 0.023891006972815956
1010 0.006887081714045012 -0.010501532065006314 0.013831114613536947
1012 -0.0012180566247494294 0.001278681553721845 -0.004271038192873297
334 8.91540915888917e-05 -0.0011591380307681867 -0.0016559372493855375
96 -0.02516589736917324 -0.004281669090006373 0.005204867181955598
100 0.0013778706295632147 0.004384548563384625 0.0035116856757849953
298 -0.011212508950536737 -0.0032694071340427207 0.0009891692195788918
1158 0.006495239431814783 0.017353190800042866 0.017847343218449108
850 0.001924615244215819 -0.0034623094311055135 0.003242077509164121
617 -0.008967436046523667 -0.02011507312305127 -0.010896758790758647
97 0.0024358796692527064 0.00028150145818059137 -0.0007697900810906546
99 -0.0037161867811313907 0.014500036105213922 0.00829839228831592
853 0.004873663202958619 0.01625044044938593 0.00578441174744649
1159 -0.0007985709110715347 0.0025007540341279075 -0.0022531171180040096
295 -0.01162188912334726 0.0025948424296621973 -0.007563239439418719
1161 -0.010104991040897088 -0.014512408559037317 -0.00019346404190515176
344 0.01596724645606371 0.006131290289829107 -0.005005818320190467
1150 0.002019482685092037 -0.002182504028186913 0.003379468318537534
286 0.0022806727393232308 -0.0003861618636810832 -0.004671834030415687
282 0.009851023540847463 0.024137719646356054 0.013462563293099378
849 0.009415284537493495 -0.010685177751698591 -0.005059181055991258
1147 0.004340680648492199 0.006763485645505004 0.0021507079786281936
1154 0.03288030078452461 -0.010652259324175777 0.002678565572737983
842 -0.007684239390799451 0.006652698406627556 -0.02650971261583437
82 0.002018023403225874 -0.0018034905135693535 -0.006043894693521776
88 -0.0014539970157206223 -0.0050091581440286186 0.012645042757024945
852 -0.020191733777317568 -0.006487397887034249 0.013674959194136835
299 0.009632592232433889 0.03471096480931969 -0.02881856731900793
292 0.0021519591071772082 0.0031557601123070886 0.00134143861976846
351 0.004127167228801795 0.014671208825285735 -0.013036729247556689
87 -0.02412673637694715 -0.013824644251374703 0.004385183486972036
352 -0.00285910430549417 -0.008721441511713262 0.0006272759575761128
841 -0.00028563653328136186 -0.009232345912202457 0.006415020442436727
297 -0.017708547827797676 -0.04704696638151638 -0.012664665434444071
101 0.00958618504050133 -0.013094239502919443 0.00030144730211976827
98 0.013216872230466317 0.01559080255212772 -0.038661970729247264
349 -4.927405669537932e-05 -0.00658195498270725 -0.007896909422519261
93 0.014822957915196552 0.014883205979212303 0.005987905955863373
843 -0.027468132809982195 -0.0060983255664233335 -0.021156032662195554
851 -0.006625460610776543 0.022799825257225684 -0.017115498463995165
94 0.0005957964907990858 0.0021519321603711695 -0.0008368809663116946
83 -0.009882526601663505 -0.009032176673007155 0.013267369278843808
1156 0.002193284981417134 0.002190184063121263 0.0009918644322329249
1148 0.013508494456145265 -0.008968573549407968 0.037781311894076096
154 0.005787895117167828 0.0098339225392626 0.0011416308841790195
289 -0.0020151354182364966 0.00473793179102918 0.001415229044163478
343 0.00042895591348431116 -0.003967810205349048 -0.0009200561805295005
339 0.018659784863329042 0.005746441677046473 0.009432331148965219
84 -0.0164283340275024 0.03118795548824576 0.008179866131838706
623 0.010753741877142838 0.003955710164768884 0.029474417301436486
300 -0.0025402770062936033 -0.03115284637398981 0.0021466550135122767
290 -0.01179314929607006 -0.0020860609622441926 -0.02341836762589097
284 -0.019046884190793888 0.019963674711717786 -0.004470413744615981
354 -0.004754628174898961 -0.00788158523495064 0.0002441482692956325
81 0.007803136519054884 0.010342979383379839 0.026874236872593844
160 -0.003709811142119305 -0.0015732385271488912 -0.007088544422863615
92 -0.0025897232768746547 -0.0008369322227133016 0.0012122645305059712
86 -0.02309091526006908 0.014309710117485502 -0.02846628887933744
159 0.002646845773373847 -0.006126867312215488 -0.003546576534976804
620 -0.005322839281479902 -0.004982611790169188 -0.014632317054644647
85 0.0077693842896444645 0.0005810191931402241 0.003108498941835872
848 -0.00031034659042096437 0.007675385179526567 -0.02033353981642807
90 0.0006674373841513086 0.01138503360360621 0.0072001366856085346
847 -0.0008256972460904287 0.0023139307427257776 -0.00010582134990951425
846 0.006139405417053114 0.0018772047266235148 -0.00285784460730944
1155 0.004198768770601394 -0.004195506672624396 0.02961098946697093
296 -0.012863437177608938 0.022455848598224613 -0.010092966837870036
104 0.005972846155915304 0.014766739783237025 -0.006386123323951614
293 0.003050845554980416 0.01811390534267355 -0.0028198563110154525
345 0.009715316116530757 0.006471840293869817 0.015045142218645276
844 -0.006390838116184436 0.005159112018117029 0.0034619642686253833
618 -0.0024282537268810697 -0.024147077440600403 0.011367536532797136
291 0.015592006462242777 0.008870693767855136 -0.007154558387843234
1153 0.005279698884176734 -0.0017126222801702364 -0.0022842560140802002
855 0.005802090886196913 -0.002417250096824683 -0.00460056906299217
350 0.003074216649358136 -0.027690828776346817 -0.00731642616563739
91 0.000652666108907899 0.0068460551538042005 0.007101409581375267
353 0.004212421025522197 0.0009044762603911458 0.019833206387852506
335 0.015600529434730951 0.011648143072825636 -0.017575509380745626
80 0.01642653217461811 0.003364218183119003 -0.0006962093166383718
845 0.008086563315800167 -0.021214795661012895 0.017623153885806903
1160 -0.004252951071771289 0.0071989505520455195 -0.018292873398412277
616 0.0010446552430486587 -0.000829567242907629 -0.001985123834955969
285 0.0149449352977036 -0.003568786993161389 -0.020295340340372375
103 -0.006825121517034157 -0.000295316799800577 -0.00020999351564921
1149 0.012094494574654587 0.01591323184979068 -0.002158096124955867
95 0.01920090574408684 0.005460260550320745 0.00637073207353065
622 0.0003855422998174371 -0.008776303489838364 -0.0038183551472356506
288 0.03265499260633181 0.003757302800474197 0.016291656511394286
294 -0.011154907338570138 0.007457283788591154 -0.01807345473149759
155 0.006785406551533298 -0.015892564001419453 -0.0323184712493864
157 -0.0055300408973733926 0.0021760582682283152 -0.0035154285422330073
612 -0.025373946100299926 -0.0130573913759393 -0.02399329247347548
102 0.012988953081719445 0.016832693842582163 0.0033135959236397336
79 -0.0014302249733485388 0.0030996752349908454 -0.005862664928024402
283 -0.002602014107546024 -0.010499981856773309 -0.0034448975969137694
619 -0.0022581122756763303 -0.006932958766895143 -0.0005349675167171993
287 -0.03228114310592565 -0.001325626512276678 -0.015034619301183261
162 -0.0038950640116465233 0.0014363610738970828 -0.0029793604522970955
89 -0.011306961146898635 7.155688673123974e-05 -0.014052085121979306
158 -0.003229494091885065 0.0003515569959705005 -0.016218160139292146
854 0.03488699234419046 -0.03168416664255262 0.019187220804152978
336 0.01797573398667344 0.0011096138309227832 -0.0022303981649051635
106 0.0007576216520482209 -0.001014141983432583 -0.007483473235839624
156 -0.026504317305216393 0.0071852875037608345 0.008612788696816307
281 0.01624789563498699 0.007512391917160933 0.024732207280481127
1131 0.027259333595052015 0.0004035882350338836 0.02385082450649896
1166 0.005780125884329755 0.013609907915575642 -0.012749543703683535
1068 -0.0006519023957254654 0.005277934926252817 -0.008589266299795175
355 0.0012532420105404055 -0.0008935702030963873 -0.0019923098172281778
50 -0.017961451939137438 -0.011129062666091505 -0.0007848474621246481
48 0.016791416371671235 0.017178218838865788 -0.018833803268854168
1132 0.009633261304194956 -0.00453089171871519 -0.004789394111973676
53 -0.018087237716186505 0.018277413738438514 0.0007876405410688152
46 0.008041512828878652 0.0007114257055361425 0.0004893859481581965
54 -0.005690890547415874 -0.011750838010083258 0.010734909693733672
38 -0.002199116215134876 -9.850118192885688e-05 -0.0044246549979973845
1013 -0.005557914904161384 0.00784451658891355 -0.007585341174335936
906 -0.021869750476057628 -0.0047982910900773714 0.021652438883673762
78 -0.02308681056368014 0.034812559842185016 0.007058281012106126
37 -0.0019650775532038885 -0.0003753506002968668 -0.0012124868848601069
359 0.0025286101490545826 -0.0033852455806047347 -0.013474996806757625
479 0.001327318526289641 -0.037638466087362085 0.008660024400732923
1074 -0.007699203625465872 0.0029805193690374877 -0.004429681316476137
44 -0.004976582912007751 0.002531552678678766 -0.002128563071265402
1129 0.0008882318822840009 -0.006201946335720783 -0.004595826736826102
902 -0.0008368966101519764 -0.01113978981682522 0.012292349193803728
1140 -0.0008606719591898803 -0.03681190036598021 0.00035027403608741
1134 0.0029789814208806484 -0.00354863882285841 0.01291803311710165
1135 0.0008939267831954485 0.006563631192006229 0.005611957880938885
56 -0.004379545726435903 0.008828318717031691 0.013198244933806209
40 0.003051255099015958 -0.003888297143238163 -0.009266565205371188
76 -0.007428624491098386 0.0011537751499428304 0.0012372568729490591
55 -0.0042239481954205295 0.0008914068862946621 -0.006945822186264547
1122 -0.03111969970536295 -0.006906796895232395 0.0028006831584066316
34 0.003955080740133827 0.006005891397550029 -0.007832604659891336
39 0.008113770785574115 -0.008920060205392618 0.01771330997484307
1137 0.004500658649755941 -0.03917823126505365 -0.014526138331171683
1075 -0.0013686875761612235 0.007293035619443763 0.0048465742973173125
1133 -0.01927471404521296 0.005617505585442595 0.005633389344006273
105 0.026001704290342556 0.005448146962077043 0.010850007948973533
49 -0.00045404024673198484 0.00995372855111493 -0.008829891592369733
908 0.005756360370942482 -0.00805676363630534 0.012982684798032215
480 -0.02420611553736154 0.008025881856967529 -0.0020687949246302128
1066 -0.007144522765685857 0.0011222701857989072 0.0008134153752797629
1138 0.0009075463917997386 -0.008084662226316793 -0.004068107579242192
51 0.009682403605989967 0.00526640116119991 0.01599570129471803
42 0.006089813954074908 0.0012213864081083057 -0.028468727894446485
1073 0.022132634596313313 -0.01660947098465966 0.002109786734486835
1127 -0.016583698169725096 -0.001970311532591277 0.0010050999950227087
907 0.003460797459511574 -0.001880357068912023 0.0015167715292281573
1136 0.018191051660922917 0.0033767599515625913 -0.01218254725069645
52 0.004166896977460824 -0.006060426959718093 -0.0008312351593511535
904 0.00476425840255995 -0.007973691878144477 0.006216312183623176
476 -0.0025408749581604328 -0.00720421976242215 0.0034916721577222588
356 -0.0008746164891881157 -0.01122275681390339 0.019674336144732598
107 -0.0035227352606110344 0.004535994828756285 -0.004160430344893678
915 -0.0033449781793477955 -0.01096423285484957 -0.01791877349757028
911 -0.007508600872108986 0.006084202341805989 -0.005151995981373899
1163 0.024083044321754166 -0.007676504869159084 -0.025283919942617254
43 0.0029447569957797787 -0.0021602904937586768 0.0038262793479256255
903 -0.00967488679611463 0.02737531468024598 0.025402251349364087
47 -0.0070916831516474954 0.009076991944506067 -0.02449684126248285
910 0.0003368435880706411 0.0028242083632218566 -0.005885189358754389
912 0.014257284106518464 0.0010085250539664076 -0.008486203989376665
77 -0.0035469688299838327 0.001141173069781817 -0.008078101491520513
58 0.0033800588390366696 -0.003938722649394358 0.011202385912502298
913 -0.0006264363792198265 -0.004027707462266513 -0.0033585349647677802
57 0.0093443957125174 0.02945262602698921 0.0049979262186839344
478 0.005749331283374648 0.0005176081582010775 0.0023677721057361704
41 0.0027465515674101842 -0.00282334082935241 0.012235258375150564
416 0.01284159948597787 -0.0075888507501623926 0.005013716838317775
358 0.004010901182358802 -0.0016115349562641297 0.0020773545429482636
905 0.013182041807929095 -0.0003911313634937788 0.02588594850608885
45 -0.03461262878267712 0.014309250723601957 0.001607756278105792
1130 -0.00782479652279684 0.012854967470703235 -0.025884170750281738
1072 0.0059957571799328525 -7.091693469671964e-05 -8.32355103450615e-05
420 -0.02989198136064389 0.016373704761486724 0.0087101428843445
901 -0.009863358369266748 0.0002054949705554989 -0.0024705516630461498
914 -0.009152421076997526 -0.007152307960189261 0.03288179008247819
1069 -0.0004574140391565979 -0.006691017386854838 -0.0025023310972952695
1172 0.0005761137115104771 -0.029165125482275442 0.007149029186356704
909 0.0005517215212634951 -0.0012580840378949578 -0.02159867533232241
60 -0.009729695222980419 -0.024593681184665647 0.02411908418094469
1062 0.00024683575938496733 0.0040651967137342124 0.030281056567399243
360 -0.014580777367935002 0.023125130447307764 -0.0020825315865383763
1126 -0.006227005835278608 0.0013664926674529032 0.0009079111929503428
542 0.0006177665326995859 -0.005944381147989439 0.014041787672144139
1139 -0.004301042480673315 0.01627242109842041 0.023429044629962457
1071 0.006590798531082426 -0.02504330214181438 0.006495973905600182
543 0.00230974549283089 0.022587269755950688 -0.0036921544859231177
1011 0.02525369532440929 0.001086721493874085 -0.00095017826643094
1017 -0.026326667712615506 0.014696976409967704 -0.006854154147702671
59 0.024644082342813636 -0.014390541460483255 -0.012241430825756322
686 -0.015622229229567639 0.006108140924857935 -0.006927580598758371
1100 -0.00037686782541984757 -0.0037387129575386204 -0.017573505656712902
815 0.003152886793540546 -0.014789532494063382 -0.005085547125746929
823 -0.006641712212065226 0.004761773632653897 -0.00490312921294271
701 -0.026136984725855513 -0.009956096044416012 -0.0029574775416105056
834 0.0013006811521408736 -0.020366222191435603 -0.021006742577368603
819 0.01293302522173026 -0.029967173564610584 0.001925684228852609
333 -0.01000346551967608 -0.013724282072882421 -0.015184676029923693
1109 0.010587174808948026 -0.0024581620914702154 0.021413646354799077
1102 -0.003120887909594681 -0.0034059233546953776 0.010646058917180103
829 -0.006802807656484225 0.002745078917137917 0.004537949631547952
825 0.005088079670710502 0.018769415632913636 -0.003745371648868948
1114 -0.0024814624508379176 0.00013837875419933925 -0.0038851885318186828
1110 0.013825734228465496 -0.007900334158005607 -0.01085255210189573
936 0.006668696020755389 -0.012314597586093351 -0.005649645091722949
171 -0.004552188447444093 0.02130803597934756 0.01115543831168855
180 -2.1413247608007284e-06 -0.008276558165348316 0.01640114855011026
1093 -0.0024229996773345087 0.0058114685183152815 -0.006273124934329027
832 -0.004099435246363906 0.004532534976106404 -0.005244049194269578
174 -0.005311788797064577 0.009516436025141147 -0.011000935747179356
821 0.01230688019638308 0.01443237748588425 0.0034573713671456523
240 -0.004164905671380463 -0.01339560213058593 0.008320407538134284
1103 0.0005168481907296085 -0.0010152791611754888 0.008234467008707155
239 -0.005781048797614019 -0.0034574491148862446 0.01326695853371546
170 0.012657324696065377 0.03440606755816964 -0.006179062901961511
700 0.006015026230921261 0.0005589468591148588 0.0011707432332667496
1035 -0.0043817143372986 0.016576936981889855 0.009127231220072602
1113 -0.015138860185076786 0.00834593620113794 -0.03746850903011509
177 0.012753450432095996 0.0032531586590660616 0.017975225390446145
1107 0.007642486828143929 0.015100693322415815 0.0027465128022253985
900 0.005311223650734123 0.011858443925794385 0.01487508215954639
257 -0.01314836331417349 -0.024238560143008882 0.01363775720809074
1115 -0.00887452856797753 0.004569878323126123 0.012485549854301285
818 0.014220238311680454 0.032217250985061965 -0.010313154814846357
696 -0.03332651061264133 0.02885598637656938 -0.018981489240627356
1104 -0.0014539221492940282 0.009430124591844124 -0.0070132067853618165
693 0.022808273747707913 -0.008506637813049328 -0.00440798836928601
1105 0.001581814168595761 -0.0011307253347307064 0.0011154569782903343
827 0.010438408367723225 0.01925953435429202 -0.025688669099739454
1106 0.009259313468795442 0.002230432825717253 0.01916845315923487
175 -0.002908240512428913 0.0028755450231873116 0.0025258027344251237
1099 -0.006028159665247183 0.005045109212600621 -0.00019882890142578993
1098 -0.00889630247500542 0.01759416735348665 0.019124004558526177
29 0.009835893622652699 -0.004382080713506121 0.027218212461475762
817 -0.0060677081148074385 0.001396205275088304 -0.004516716892285901
1112 0.007154563589637241 0.023280461858472882 0.006520160908610965
830 -0.004770414462911396 0.005248309948866201 0.0024618768405535304
228 0.003382889894424022 -0.01051563186720213 -0.011198002646869579
820 -0.0039597576006417615 0.003742089103574501 -0.0007449518271127539
929 0.021997488519555554 0.001080719127920338 -0.0014174969824773545
697 0.0010296942366430613 0.007543292165249838 -0.002817836607903791
172 0.0009338710101863682 -0.0022387764828402804 0.001101069183092649
814 -0.002214316456354375 -0.009015299975567673 0.0016159093023803996
176 0.006138102889426511 0.01450113216974669 -0.021996665598783646
699 0.005796675733151227 -0.00413404156542142 0.020047293608236576
169 -0.0042263349371619765 -0.009725467830876253 -0.0020833393709039885
833 0.002362784708565505 0.025701048689071727 0.012320292069520572
831 -0.014279370621037436 -0.002376352117393498 -0.03786149006264283
826 -0.000410065004299098 -0.007174294290161639 0.0037042580570746057
822 0.0027340414289075497 0.008593717446506166 -0.012736319591823402
178 -0.000715015393469968 -0.0016872593726854814 -0.0054564204523189315
238 0.0013641018088497638 -0.0006560168034167135 -0.0032590777328266357
1119 0.022928952793517105 -0.018980207556268443 -0.003598615388546035
828 0.0026424264488485454 -0.011478752385429449 -0.029699292239020562
1096 0.008246998280485836 0.004176439811119846 -0.008863419366907226
1020 -0.0008016639754243607 -0.018252777184582507 -0.011126129555839387
179 0.0070861523456556335 -0.00165648350269166 -0.031978953529338085
1041 -0.005041477678417175 -0.00782522506941708 0.01353931316142966
1101 -0.010255230971871645 -0.018754278286945553 -0.010531375898868437
1111 0.007236261348322936 -0.007574992525471641 0.0009375951158140913
824 0.011057530830908368 0.010231291798130204 0.007656920109894018
215 0.02863108954293942 0.008640203474216254 0.006238770406489162
691 0.0031860881367307583 0.002353132458043257 0.005110393084894976
1108 -0.0006139569359536741 -8.376032380591223e-05 0.004558853637169556
816 -0.032295162651288005 0.005082080031958622 0.02780839491524001
1097 -0.018821128937116106 -0.02726315864403401 -0.007548796715711041
251 -0.006456634936395551 0.015391330542951531 -0.008023814439013198
233 -0.017452544361604205 0.019066756971281122 -0.022604482693755878
221 -0.01015751590667701 0.0006644924225501539 -0.017981937816135263
702 0.013823897127244475 0.01109441754167781 -0.01153160115193557
1094 -0.005414112888408191 0.015055206666784959 -0.014073927197574162
173 0.00620241688040525 0.026313712459696034 0.00512148479292663
840 -0.01750090517374126 -0.02406271047832688 -0.003708577511107175
698 -0.00909075111435709 0.00013421665507357009 0.004425567681974662
694 4.863890190366735e-05 0.010049905207956594 0.01147539743304806
258 -0.011644245119801038 0.008173896408166815 -0.01608998798036751
1018 0.003148899980453614 0.010010542252112405 -0.0011522420720391972
1095 -0.027620184729054555 0.008188442050743214 -0.004303751395059663
839 -0.012399514965067748 -0.004031571755453591 -0.015612479921921886
1019 -0.040893753929849966 0.007874304329898241 0.003319734504017506
256 -0.009501260073054229 0.0058573757845590685 0.013518840990029932
810 0.027756526207049013 0.0023674018897902956 -0.024198048031452174
231 0.003929223740405481 0.007756668737283331 -0.024105535914215853
941 -0.014864371050010518 0.011494057791172128 -0.04277793220935522
692 -0.000522152132979184 0.016318823813469413 -0.002515580166407715
809 0.021322004916597186 0.011358140598072651 0.004253652115399998
778 -0.0021782122934700518 -0.004824565292515857 -0.0006238896793199884
630 0.01253345258021743 0.003747452639751101 0.01168281218559854
779 -0.007530283893643929 0.00294594437213736 0.022385002330265642
897 0.007105305891581083 -0.01195898123008437 0.0039831278270235845
347 0.018031281541205486 0.013655093519548484 -0.004872107000507578
895 -0.0009920006100036089 0.004871548937728246 -0.01231097508528507
1090 -0.013034275284244664 -0.0032268172300072445 -0.0015361916199993233
679 -0.002259099213478582 0.002789427185399489 -0.0037790544891029136
890 -0.003375236653921123 -0.0057512850646069796 -0.015466635565853445
891 0.011725526105848181 -0.0038146391010245094 -0.009140856360279899
1083 -0.014316257837011048 0.015441031180168594 0.0004543645629077639
695 -0.024239058521440558 0.01659487118876497 0.01132533828515461
1088 0.00035327015284760034 -0.012010846047222254 0.01606043193267417
688 0.0022492053829548018 -0.0009670565838655575 -0.004122838052583812
578 0.012200865439802831 0.0067632202404744966 0.022399630519137775
681 -0.014812274328235933 -0.016669463507573635 -0.020552548871254094
167 0.0017266797207326262 -0.001455091072939892 -0.001800724155802722
882 -0.020108338166543088 0.004064480776021048 0.0019862738257392836
864 -0.0002890038459300303 -0.026125381637455987 -0.04222895348770028
1087 -0.0020899848481791467 -0.0063346417972290235 -0.002020778948806688
869 0.004281957506345009 -0.026089023062386543 0.014980812264455832
871 0.008181979823230203 0.0005801125718661518 0.0014098331108645156
893 -0.006167730680990408 -0.0170219151269336 -0.01814605475710786
338 0.018535368340259196 0.008730982452943147 0.005332726617721691
892 0.005369809700309738 -0.004885615914962396 0.002905068354564871
899 0.021373602565322426 0.003975587343298109 -0.003729658083962815
872 -0.01613196923355706 0.0097173303044061 -0.010370316105623688
574 -0.004455382948495532 -0.0030563468569672573 0.009311764729649352
1089 -0.00735567261677749 0.02161378055864255 -0.026270481525306137
340 0.002600720565966125 -0.001391339648704586 -0.004347017827614224
1084 -0.0002614609536575299 0.0034064238552460567 0.001156131374656166
865 0.005976822602766476 -0.010921879758563926 0.0027514388779272016
889 -0.008042813249506993 0.0023244757258073503 0.004170330950623161
1086 -0.01797064003093687 0.00111332243065618 0.0068692295137674
866 -0.02398464284508464 0.020729414357273893 0.024911535166169705
863 0.006750640520668795 0.021326276316636607 -0.007099682274177768
885 -0.0023113016801738235 0.0011382999970693036 0.014559434981440696
342 -0.01292862291645662 -0.011537363391057015 0.01571820674566593
859 -0.00202443339508398 -0.00047709145080989036 -0.0041355697853515845
857 0.01773397407105867 -0.00039848758682462583 -0.02332616886287941
690 0.00948459645180321 0.014978218294002775 -0.005964045219800143
870 0.010583838996577397 -0.017056777567596257 -0.008023014723960224
687 0.002811895009946755 0.0030812793363552593 0.03131087037707502
883 -0.002822249159591781 -0.006131207730189072 -0.0004822796919987019
689 0.02124089304328033 0.011157112620431606 -0.003827142787643888
1091 0.010408585508389278 0.005599679741414064 0.009780167446200898
683 -0.016507847071585837 -0.004546067558769838 -0.004322935094376763
582 0.011993436555031092 -0.012829576367490709 0.018277204107700167
163 0.003687036089452104 0.0019935884850173224 0.0020427084621056244
860 0.006226984414597863 -0.016718714943736206 0.00667299614275918
862 -0.0023454231671412996 0.003883111438107668 0.0035609532211754343
877 0.004556963610121424 0.0015249983701761218 -0.002472241452826116
898 0.0036385105927366455 0.0012567604639066347 -0.0024354087547419512
341 -0.02996000618597779 0.01552367555458653 -0.007695455824755318
879 0.003695021286535735 -0.024471385140688088 -0.02526684058405241
579 0.016381127768314956 0.013699608763185652 0.0011983330773346005
1092 0.0022443636400548994 -0.00015341787444477737 -0.013386087306899505
1081 -0.0019312046652897453 -0.009402417180503126 0.0037108086677230556
878 -0.006443351087760426 -0.003149481119094175 -0.001999549342826397
868 -0.004171106652121698 0.006674895070950608 0.001745832900657964
867 0.012173782617688806 -0.0012679064787793387 -0.015784400464999845
888 0.007110450646009792 -0.01083297506373618 0.0020773642788600977
168 0.009599002896108834 0.0274691598016082 0.0076824391773143074
337 -0.0033505094108629355 0.004059991327310993 0.0002690369540927575
880 0.008465046647295431 0.005643327855579057 -0.00787325131248105
886 -0.0014211992347688042 0.004204002414833417 -0.006696347614961989
884 0.015866581265471188 0.035765541399918985 -0.008945188656082166
684 0.009265957294984728 0.02235007544430558 -0.010584673903625344
680 0.006770876495451967 -0.009644990111803545 0.0440860620212271
165 0.023243043330672227 -0.017811288208328994 0.00898987797702719
108 -0.002657196640135191 0.03835445320643011 0.0036135932955925665
856 0.004178919168641365 -0.0024757115661379085 -0.0005727167949985951
881 0.004737760527537104 -0.01569208661913038 -0.0007954897838656076
861 -0.008050297459421289 0.00762444261453614 0.02244195505082184
685 0.01704804370735185 0.0002547390453578279 0.0022317341742580294
1085 0.00817912959121376 -0.0024328283079383386 0.0014064380296877734
873 -0.00595845080886175 -0.016703500961869722 0.0025994895707481163
1082 -0.0211347729551596 0.004172591880570221 -0.0009283854585199514
166 -0.0012487515320414619 0.007621785611989946 0.004131787328403673
887 -0.01599510628359984 -0.03884114241612427 -0.007555839725832412
629 0.03560622574209736 -0.022119805622855773 -0.009046542943292242
896 0.00012094381467264085 0.015875585473741363 -0.0002309525688604978
894 0.027852234858054183 -0.02109145200973061 0.005609058565739411
876 0.003698777083957618 -0.011146819142053564 0.005364782261996157
858 -0.008436605954535938 -0.01501367137191605 0.036635798261913835
682 -0.0018709675698544966 -0.0039052500931420547 -0.0041387856653313975
164 0.005288938243528695 -0.016351973416878853 0.0001561293668939334
577 -0.0006907494375898081 -0.0038029521758993767 0.0008056938276992211
576 -0.01302485334488431 -0.00037933354444286745 0.01139599691289056
874 -0.003512063110171246 -0.00271277835348226 0.007321379929588723
581 -0.016713133909553386 -0.010048768106290344 -0.0013577473914367089
780 -0.012433236135501388 -0.025804536398706297 0.004975428685781705
580 -0.0012121939688782217 -0.0004752680138086873 -0.0023196448371283827
348 -0.022292783251954596 -0.005941613766061074 0.012466254975922271
346 0.0023575161293255386 -0.0016420758435064047 0.003860911991907834
624 -0.018513875020230556 0.005257904134771937 0.0131301014165186
74 -0.023217230869590214 -0.022409434954222165 -0.016726554607638784
75 0.01378853508971304 0.017520826139088258 -0.02204786407130752
113 0.012803835765334604 -0.00588961409743565 0.003114102992357546
244 0.01147693506505488 0.00874100188270304 0.002028098988169208
566 0.018674532567879657 -0.01974027994880591 0.0073322746837961835
1117 0.00766371817936391 0.003746215924119473 -0.0036277917273868543
916 -0.004572008092297721 0.0063819351187885745 0.004056920855302465
246 -0.010749595860323135 -0.009058123099782005 0.02592283850849613
547 0.0025037625786296894 0.006599860837901868 0.007674203608583481
35 0.0007373150955906302 0.012545043480931724 -0.005078740938307395
918 0.008294652101947506 -0.003203650953124828 -0.005562712248056653
567 0.014309240879753042 0.018903625647615555 0.0008696835828631319
920 -0.015012093470235114 0.016683636171576085 0.003417312609199607
555 -0.01797396868129075 0.01555741151451736 -0.0057859779890914505
110 -0.022783234518102578 0.025708520946102112 0.009762242549290609
65 0.012351057391444648 0.015307004472250321 -0.007471979893386427
70 -0.00028387211669076405 0.00042217182230997233 0.0021530979593128476
117 -0.013345858978680528 0.01264873755559962 -0.01130265568501964
919 -0.001542404585409416 0.003183210426461153 0.001719161105840264
554 0.0028183021598514693 -0.009911814877614828 -0.0037502122437739578
1116 0.005435469205177741 0.014064701270722254 0.005288953531872474
932 0.0065864805437373585 -0.020956267929237667 0.013963749688263482
69 -0.009265910400291578 -0.020340516796607973 0.002362535262772033
925 -0.0026313216435389676 -0.004329211890481909 -0.0027810552988197113
563 -0.00683370611438526 0.0033515852093780694 -0.01391185504642972
544 0.00122563515689829 0.006863851799245213 -0.0004470434145005064
922 -0.005060776434948749 -0.006474168492224154 0.0059821271005753305
926 -0.0014998940621470988 -0.015666569321084317 0.003911922595401633
568 0.003616715133625773 -0.0029592758017911386 -7.351284738189779e-05
551 -0.009762205561769995 -0.0007107339537086377 -0.02520760593942811
931 -0.0011824881706454231 -0.008572837273437097 -0.007167950347215122
557 -0.007845659133180444 -0.008045436621270753 -0.003955343835159462
120 -0.009716426052111163 -0.009226084428402906 0.011215027932339302
1118 0.008599191938296781 -0.007113834818820662 0.0030109677555884744
571 -0.0004405485054969306 0.005517294571353323 -0.005422057621536335
1123 0.0005681397283159402 -0.002463000085553769 0.004875181668310149
109 -0.0044489768064748005 -0.0017257954977923423 -0.004690358402529568
546 0.004540327760114939 -0.007109479425029702 0.028170322861520054
550 0.004285039111677433 -0.0002927227746284258 -0.008378712134239073
927 -0.004474952246152888 0.021256854445748697 0.004367361522545152
63 5.727790835699726e-06 -0.007632305022472944 0.021068635055208826
114 0.012898386416044327 -0.01043029330337578 0.027441007751149465
242 0.008586757178817218 0.014455289484727178 -0.019153703894917204
62 0.01078392350778189 -0.0013706895625029602 -0.018259764273553306
73 -0.003517776431949475 0.006492393903544992 -0.0005185879137473293
111 0.008686626589760176 0.015073490903215126 -0.025746580233647474
558 0.0007775540841412726 -0.033999869749250476 -0.014180971986788917
924 0.005955870210019665 -0.03125865736131577 -0.006697243020474684
1120 -0.006932428518583014 0.0008910720931937531 -0.004601374627310009
1125 -0.01826267879972161 -0.0023782849988048752 0.016633157237956855
561 0.007847625635855582 -0.010778291256545388 0.0182947712309077
923 0.00037030486382286275 -0.0014448256260744254 -0.0007461524948863671
556 -0.007014527624270617 0.0036426540074611675 -0.003667142912696995
917 -0.030910934819490567 0.00496883373128899 -0.021184475861166837
243 0.01061220575702607 0.02709644754351717 0.01274643491329129
575 -0.005289592809551738 -0.010534205491541047 -0.006946920085876564
562 -0.0021251452571567028 0.0007130027946055228 -0.00023678950024253137
560 0.016300247804490808 -0.01207706740294305 0.01045819082365293
928 0.003067086789437061 -0.0005454960524101023 -0.0032456630881799006
930 -0.006558797896097292 0.031268299116994 -0.0026864003881344523
564 0.0077593544815612765 0.010360862558283744 0.008676524871621316
1124 -0.0029365413862894605 0.0004124236573552026 0.029442506846190184
118 -0.0001956001328889146 -0.001023938767017852 -0.008213527893658137
68 -0.011382392479239611 0.025777929555344664 0.0014942702200619066
559 -0.011169671959275512 0.003566366169179486 -0.00468674059715893
245 -0.0177593889935734 0.0029132625551873473 -0.008782887703546946
573 0.0010688118908593694 -0.024423533371689263 0.020834802531680047
250 -0.000589824773421998 -0.00247253933598333 0.0013717219169075282
247 0.0016958107692303043 -0.001592556286958362 0.0049262865997907685
67 0.006218016649781681 -0.0001665753010541076 0.009403031208926814
565 0.0005619519642553225 -0.004491599986359715 0.0023457704837181875
935 -0.02497067161919131 0.016029508355926217 0.00858478678711526
112 -0.00857623923027639 0.003059472148808057 0.00652590494718695
921 -0.00018968882835534266 0.0017832781462184355 0.017585933058080386
115 0.00041688118851660784 -0.0031278757868852657 -0.0015582894438343484
116 0.008801394243760918 -0.018552580851481214 -0.01758990131516841
64 -0.002869898276690124 -0.008667169421123602 -0.004974732597806891
119 0.006731051428543985 -0.00606530771506096 0.006658456374460385
569 0.008921717787928152 -0.009314359555173629 -0.011205886708663541
553 0.0008478574587896141 0.0008090521784018507 0.0009859879095100946
545 -0.012118633742714378 -0.00775491946277148 0.007846604581255424
549 0.017784335468954346 0.025487072919143372 0.0419499484425703
241 0.0012370828736901268 -0.006107984463035026 -0.006884910463035235
249 0.0028507759015384973 -0.0002685151953065696 -0.012268690292990984
71 -0.003154258978055142 -0.002698596648966068 -0.006911347451968521
1121 -0.0028345703823644754 0.004313651331050167 -0.010137460567067375
570 -0.008857308049822791 -0.014560632453792428 -0.012173702945629835
72 0.021925641155018785 0.014933026633598532 -0.023700820944865666
66 0.007436811287062391 0.007315176217175319 -0.00880182539594888
552 0.002582377989885567 -0.02226258247538792 -0.0020824099940045617
61 0.003084803600452843 0.011482008199367105 0.0016624417058301402
1128 -0.0013782547867376696 -0.03391691414252738 -0.004609551378775142
541 -0.0008503993439611505 0.0031985291276546814 0.008098020673480567
572 0.020124418251450386 0.0018888742502189517 -0.01815061177215445
934 0.003668495824373831 0.0016764096391674037 -0.0019449892249482242
312 0.0005619470798093672 0.005249529620763537 -0.033900386625089346
933 0.023434817312715527 0.014341617570561151 0.004708487340555726
548 0.0038201141758634804 -0.0032982899441010346 0.005601807204889424
252 -0.016502198040029746 -0.001581553667947971 -0.04818392699104028
875 -0.003001796056000529 0.06150030625151108 -0.011453067433342085
797 0.022718154329524277 0.013350471328685973 -0.028526236451509434
531 -0.017026192828560237 0.00042948197643822715 0.016989356077241616
952 -0.00044704258344949204 -1.8986841621289522e-06 -0.003746827561265232
957 -0.01854451330542496 -0.021856957564619056 -0.004274555635180954
960 0.018216002431332288 0.02237497275659262 0.016934522853982767
324 0.006863380769382573 0.006027336578908665 0.015414621798014887
1080 0.005131468309657947 0.0027407948473282566 -0.008196098401524736
532 0.0005941588017831633 -0.013361905376652503 0.0004930961040330305
734 0.04146469395377359 -0.04145226344476284 0.015623651359046357
533 -0.017029955690539573 -0.011550723845424422 0.0035841178196543656
800 -0.01598864425731604 -0.032587992387255536 0.012393089450464759
990 -0.008083712300301705 -0.02682180208066958 -0.00710478528933288
739 0.005461773981838591 0.004233033806409564 9.797353002649834e-05
523 -0.004902407598474546 0.005614971569562776 7.210402096283505e-05
724 6.866166019315404e-05 -0.008907294349209383 0.0003482961900526198
728 0.03144922994914661 0.012932887440082107 -0.010864059263717087
743 -0.018136021048016506 -0.00757245135607538 0.00021330558611924947
320 -0.017909673612949303 0.006327943265796755 -0.020418326091435457
729 0.019513766862189016 -0.014596527517867136 -0.0008378789544539561
539 0.0021382481516280588 -0.034428977606592054 0.0016494265828764904
1002 -0.02101263509802635 0.019519368529013034 -0.009704076744035301
1037 0.01571873747311889 0.016219257661776385 0.010177085535661587
733 0.0056067513707876784 0.002764842138991291 0.00918314187789963
997 -0.0036227752186886258 -0.0023256898347770727 0.0050385494515476515
529 -0.0010447411282000604 -0.0005079045156617802 -0.006257392921100796
726 0.014778930372299433 0.007891635065798965 -0.018677274206797965
534 0.019047640952012362 -0.004711932487364276 0.03514811188304605
262 7.841711543897315e-05 0.0034410927414917193 0.004707252334429418
727 -0.0029180855913174 0.0005654149226352624 -0.0020441037705483675
794 -0.008137720352485164 -0.0038840346502511313 -0.007679485172197804
520 0.005841085990476618 0.008202646870622205 -0.006608129810820628
522 0.024611579358312128 -0.006750782312287512 -0.0325855222118265
996 0.005359693884189426 -0.0010472159396797893 -0.0016239254314758522
329 0.0042822840542507176 0.018032088945419723 0.010238665450186197
528 -0.014609547424269634 -0.04178028556535223 -0.014445698292227208
994 -0.0015651591556066287 -0.004344615650754391 -0.0006157870871725445
993 0.006108839677256946 0.029152875461668146 -0.01852408196319531
796 -0.0015527361142729356 -0.005330652114593672 0.0034190483775070842
730 0.00012749132311122474 -0.0041346664782410565 1.4611812187389576e-05
1014 0.019381164460230402 -0.011369174898726438 0.02671177767328887
526 0.0038682057076922086 0.0030620300750854213 0.0021978340997837217
422 -0.01649030733768138 0.007385289385104544 0.01356741711434797
989 -0.02130410197133024 0.011882222221134445 -0.003090792225092987
313 -0.0061369730210259444 0.007021340375826697 -0.005741012522288939
321 0.02634248134253334 0.01117633687734609 -0.004749986301449418
530 -0.02049878113071842 -0.0004212869373587277 -0.003149498478575984
540 0.031072035336688744 -0.013932553502186402 0.0028403076007760654
737 0.0029023132289285585 -0.010306401026335689 -0.03749143771809876
423 0.004898588932849462 0.005050140013682356 0.012749886898128181
735 0.01611884422003093 0.016209060253083097 0.004688861074098608
744 -0.0008367023759996556 7.042167902363904e-05 0.004101736330899643
263 -0.02383494679152713 0.007459395232843205 -0.0030742901522488875
524 0.01665146774224561 -0.014885560928282771 0.005792161325689404
527 0.007417406849539598 0.0051379306664539074 -0.0016667422001667863
314 0.01003504347738149 -0.03652869483057097 0.007934023170434524
991 -0.0016742882602929182 -0.005489626585131571 -0.0029177562127407097
953 0.0018459254995494782 -0.008870216441378016 0.007315686256374032
742 0.0042188761192353316 0.002258473599831559 -0.004907728529084442
519 0.005702300709999153 0.02457567741724104 0.010446601317194487
535 0.004262386475176304 -0.0009310069110060044 -0.0002474934204810479
322 0.00247838989941541 0.0017181059443363426 0.006527326994170047
537 -0.024580304396773552 -0.031656725870658535 0.021151488719439903
731 -0.023590142366282027 -0.006523971019081994 0.03750590370792554
958 -0.0011787968018593436 0.006449947019226492 -0.0008910017980330832
992 -0.014345573883206222 -0.03040980719922371 -0.008769446934250637
521 0.0010113729308827877 0.005501329855964557 -0.026180900680947146
736 0.0043885019830148895 -2.663626676373062e-05 0.004196183369240508
421 0.0013192357294252042 0.0050595473871411535 -0.003996764195933611
738 -0.02558635248058077 0.026071520352249862 0.007481498686664764
517 -0.002423207735842125 -0.000784778637267327 0.00752915208770114
741 0.008636475248311664 -0.023871898318694764 -0.013724704420919474
988 0.007018710843237267 0.0040664677980333614 -0.0039958344834180705
536 0.025897997965198902 -0.019473057857491476 -0.0042788847835987165
955 0.0009072998614773054 0.0027184865738715917 -0.001892029493501789
995 -0.013833492250873637 -0.0258526796314293 0.013696619618767693
323 0.0008081977360620552 -0.009276513678432696 -0.0023605043321324984
998 -0.016357940304038497 0.005061536846414577 0.004341528439703693
956 0.018532002716710738 -0.006209006010099382 0.011285723467636467
538 0.013562922447847915 0.002143186066132305 0.005480229615067681
722 0.009024568328732616 0.0004698401185614788 -0.008175795816445737
1078 -0.0022181109805406974 0.0029961456121490966 -0.004448965996679839
732 -0.02189364324757534 0.012191188750163512 -0.008371578465109239
721 0.0031123109883434185 -0.0028887615863867778 0.0001275224013024482
261 -0.02743784094654467 0.002505072612106131 0.010918280092319202
319 0.006772239090115038 0.008265702728148092 -0.0049161026687547195
525 -0.017203484454527868 -0.006065631563274787 -0.013652925294754755
1000 -0.002283913499849575 0.002998256519382688 0.0014483945336348743
316 -0.0025947329532668225 0.0022721899692833944 -0.0003081153194509578
954 0.008282617194480285 0.006186247606348809 -0.008471975496875044
983 0.017832363168610258 -0.02722993880887878 0.026454187291659353
264 0.013439423955268764 0.010236257857034232 -0.029772086552220984
999 0.004038244119258239 0.018646730240521114 -0.008077611398412895
984 -0.03497052168832745 0.018348257015116155 -0.002447800654920502
195 0.008588411825938672 -0.0041566330547159296 0.01030004148947505
205 0.005032129752146421 0.002376808985902018 0.00296147282720569
507 0.01678751661595986 -0.01884977493731012 -0.0004173197964873537
193 0.00291826692292895 -0.0005190795561636737 -0.004748952284568768
194 -0.005296663102077691 0.010848495869787908 -0.02053723889158137
782 -0.0028011332554340163 0.013456794091760944 0.011222003843301775
515 -0.0026102629345546354 0.030647583113648375 -0.009243122254425098
506 -0.01772592648868707 -0.026452494538844476 -0.004666702012714887
185 -0.004192848230126736 0.02030819231083513 -0.029165208559131517
798 -0.028930268588042523 0.034176523197619595 -0.02927817972823974
1157 -0.022796424659290312 0.006718448186571192 -0.026266331114769243
186 -0.0014193619397149797 0.003752017354363236 -0.011894780441828168
140 0.004231890492305505 -0.011346811481178654 -0.012776111546318098
136 -0.0018733281324838263 -0.005749085103199453 -0.005250975217334984
508 0.000238611358826219 -0.0014484382432897855 -0.002857665915571947
137 -1.2272831012131946e-05 -0.009775076864214962 -0.014063779405310596
184 0.004958485586038824 0.009621462630449136 0.008907815959380904
781 -0.0006522645571893749 0.00016667434320323564 -0.0032255858660460795
142 0.0007363243721967671 -0.001270231043391641 -0.0010731892040269934
147 -0.002988823875459742 -0.014620992307167506 0.006926133611771015
503 0.0032132060025288657 -0.02782510206958961 -0.023026609285453664
792 0.0046695710564057065 0.007505766153390242 0.012145908147512173
1146 -0.015711157109945948 0.016130273883195722 0.006289182091576238
133 0.0030824326273816865 -0.0016620134592122394 -0.0005144042734459496
190 0.0044058257009593465 0.004371407083545952 -0.004219728475544089
795 -0.03114532580298062 -0.011520166695625672 -0.008368633460597779
196 0.005417979765774227 -0.0049939676283956395 -0.0007039507039015854
146 -0.00705281214833633 -0.014116181406946801 0.008443135350416898
206 0.019841083794933278 0.009856475693411536 -0.023530616667910353
513 0.0031840823020804123 -0.01617152829526357 0.021238136233130277
148 -0.0029472119494862443 -0.002122577489896232 -0.006834321294227249
130 0.005915786290617988 -0.00491787351555003 -0.015896776178104446
510 0.0011435414976282805 -0.005196942824730091 0.012887848678363855
134 0.003515429245283245 0.013204574468205079 -0.013470951388050309
788 -0.014293139329809716 -0.007863698547175163 -0.0038330175805651864
1167 0.00025209034865560336 -0.02402758338215083 0.027445049008256294
748 -0.00530162548803714 0.0047978528295036455 0.0044083313171646215
791 -0.009969016741845303 0.019290978211743665 0.010964489645621724
664 0.00048786974164914427 0.0047929271181244735 -0.0037868688465876794
786 -0.0027567249962964593 0.010110060027621982 0.011565360121890222
787 0.00461424824285234 -0.010385050116361047 0.0013001226125917253
143 -0.019557629557905194 -0.021975005057413656 -0.007276929178289089
518 0.024050475805059302 0.024926958202523542 -0.04211850280069823
501 -0.005724892675170207 -0.003589033295153101 -0.0033003230748144203
139 0.005978288259219492 -0.006271001761756488 -0.013008272146922479
753 -0.0058255968990635065 -0.0018537595952588277 0.013825379357344816
127 -0.00015829560097357776 0.0014150148806763231 0.0031803195010624676
512 0.01100147474637154 0.00814176752915501 0.020521532865347407
505 0.007306806095604217 -0.00605725527243648 0.0023181682225893838
504 -0.0014442164970253453 -0.019499234241269894 0.00011220188817345462
785 0.006787574859641584 -0.00157356277570626 0.0245045488087297
621 -0.007779767437272547 0.009661800662288049 0.011464524244007615
783 0.004791084950243958 0.020855543240671022 -0.0002551080224329002
202 0.0009565929397695726 -0.004439177037754628 0.008794452044801076
509 0.015944186158339185 -0.01787158708212529 -0.0031754573963173553
502 -0.0037738549660034006 0.001808829338383889 -0.0006350971981705288
198 -0.007267288673955172 0.028892224616850405 -0.001833660851122892
747 0.003370343196650903 0.010560533324279791 0.008804826731750556
499 0.005178584113228222 -0.0017920818954923312 0.0033004146931139584
662 -0.014599502027447168 0.01180754987828952 -0.0020846492576159408
784 0.00026000868816297137 0.003968297539825453 -0.002045067170479901
210 -0.010317673324831933 0.0006951304031600301 0.011222744070877155
200 0.02088750801151652 0.013241790378613073 -0.005239596244372092
1152 0.0049554226503220776 -0.007874549174398787 0.005515518399076218
135 0.017348733773143287 0.00019102823465095133 0.011693666502320893
746 -0.013719385985108712 -0.009208833263629927 0.017888710074414033
153 -0.022506173676966987 -0.004014557708085166 -0.005853454130775425
516 -0.008278390195504493 -0.029661085060300043 -0.0029850250416617458
197 -0.009045777504322955 -0.0077159262554900455 0.0243562068443211
789 0.033849546577235955 0.008793589586481593 -0.0035500935505811252
128 0.028593130695531207 -0.018313155039325943 0.010856595597576417
199 0.005399407046555584 0.002142609722176299 -0.0018104177903878675
745 0.005030816958710166 0.003209437012703611 -0.0005113412501889724
138 -0.002241866329384735 -0.008888978968007883 -0.005719587737870724
514 -0.005926332292142516 -0.002130346770612421 -0.0008056803716438664
207 0.002887109899785346 -0.010010026525939098 -0.011261696784923966
209 0.0037472559653615074 0.001122595295235648 0.01725788876932349
152 -0.0309963901227231 -0.018463516432360196 -0.00990992604157191
663 -0.0024597201563688643 -0.010860948227258948 0.01865517908750606
192 0.009761394410302379 0.004476216311603307 -0.02151640690921856
661 0.00200354400924299 0.00101034386629191 0.0026532800502261935
144 -0.012383632648875662 -0.01613500408872946 -0.0037004586152764502
419 0.008397656095284914 -0.008531042354223807 0.011746117897626387
141 -0.005006820222575387 -0.020684555692539155 -0.015176734104489996
511 -0.0037784557451745254 -0.00890019823951693 -0.005952832425486288
145 -0.008347553332057299 -0.0009410525525858616 0.001455745929449244
129 0.0019199190098257745 0.009703746370360923 0.00815101375360851
665 -0.006250189912184102 0.0017885777793265854 -0.009638977603888071
132 -0.0028006333179497055 0.007193391125856888 0.010484367342912552
201 0.003503281106991356 0.02624952934034349 -0.024074647215129332
790 -0.0054765328124721695 -0.002223936748307883 0.0038330104405059806
149 -0.018561993230018115 0.014236912051415068 -0.010912637666470897
208 -0.002270716156128518 0.0040851477749552475 -0.003811279403172981
151 0.0014938608565117312 0.0025342593063305747 -0.005919452522848564
191 0.007273940017980093 -0.003831787629311393 0.020358525702050715
204 0.007743901242435578 -0.01779811340168483 -0.013954690670033559
1145 0.019560160396100014 -0.0010650476923380811 0.011403181932980924
793 0.0031534734741589326 0.002377280243774651 0.006438511325810181
500 0.027872710235818225 -0.006416824862524625 0.010923156917641801
752 0.011962959810624344 0.005971065788196001 -0.009597923102165368
1144 0.009525291742794487 0.0058600426025204036 0.0006011013180063962
357 -0.014894135907815673 -0.007454841800078319 0.0024549886335480642
740 0.02206018084329203 0.0015932722885842305 0.012823648023828654
1151 -0.024980027531652967 0.002999590668580678 -0.014993855942892813
150 0.002732130422879403 -0.01236249371446604 -0.04241292196248069
497 0.001351063637850395 -0.01095081171266599 -0.0005077574687947476
483 0.014758341242394203 0.023416559925389345 0.02433080312526548
1173 -0.013671750826970188 -0.011841719673333454 0.03260290633864369
434 0.011989744287820259 -0.018077863548516232 0.004568351298104187
1169 -0.028284878440176048 -0.022155109671012235 0.028471771055492014
424 -0.007635322815760843 0.0027079407115766863 -0.004886484576481754
405 0.006685504004691847 -0.00013651320840605847 0.0012659438289384596
437 -0.012841924750421507 -0.009644845928022625 -0.009274388140107687
1175 0.01409176033348528 0.01986552414705863 -0.005126627929005552
435 -0.0022946444893549587 0.00032630604165225765 0.02744519714203947
413 0.02901169690339135 0.029457649717656464 0.030607353037384166
131 0.01675080917107621 0.006708889526011487 -0.003053301244760621
406 0.0035054190625715942 -0.004011052703141219 0.0028203552326122303
307 0.0009305271518716494 -0.004179579778459374 0.0066602650832625065
400 0.0020013686786333647 0.00048125703705162963 0.00782454414498396
1174 0.004578809267028161 -0.0027426863126917013 0.0017505711495719913
436 0.00019101153868109974 0.001783460276196013 0.003940601137994529
472 0.0024262008767657497 -0.001962334001568346 0.00854477447428759
490 0.001461815561162789 -0.0014789471878909625 0.0019873120643036078
1004 -0.022405101671078113 0.025016744746119757 0.012472632349386505
410 -0.016059445957838783 -0.01906492402155248 -0.012606889361233716
403 0.004047342491435797 0.0020159687864985437 -0.009480648395498644
659 0.00797367373504998 0.006876211997498707 0.0020321284220324158
1176 0.011393940765736256 0.03389732768806248 0.006428579755156847
469 -0.0017873467836520601 -0.00346358870729496 0.005735296566769683
484 -0.0020296397342850245 -0.005039285910990784 0.002493172774673967
488 -0.012169796342275838 -0.02804498607606955 0.02018264958484346
474 0.012995616382091367 0.003995194289114319 -0.031296577618318215
414 -0.010200124664676782 -0.013338398372145508 -0.010794977162430773
487 -0.0033459261217470703 -0.004728667228886587 0.003061816322669276
390 -0.022003897976269005 -0.0014989664959524816 0.015558153518748112
398 -0.023731360543825474 -0.03659997352995415 0.01147152716116125
431 0.020534468102000134 -0.004278414951664545 -0.019993294263218588
388 0.005114761971959715 0.004508055441453837 -0.006381928970419766
481 0.0016841298324725233 0.0042946869406205535 -0.0026002220503658696
470 -0.009204856182136926 -0.0005987298471008618 -0.0027073752399555686
433 -0.004945587468192533 0.004913104735535713 0.0003052342948734062
495 0.020711228025908277 0.004858403718485797 -0.004691978602438874
471 -0.006727486668168396 0.009606401943381524 -0.012535766246536448
412 0.005244010109713635 0.00013374748989263566 -0.0028932627872831572
188 -0.009619853185222639 0.019962420908897376 -0.013056207960968624
468 0.0035085594980137943 -0.013909062611794218 0.014108784443930837
397 0.0006269472296291942 3.7931140126874974e-05 7.646194949639425e-05
467 -0.00038080336893508347 0.022087062839174918 -0.03648212802686678
430 0.006146914842378188 -0.004409799747126549 -0.0032469865744975106
402 -0.007805986479757362 -0.01883402200994472 0.0027924019549849365
409 -0.016008066325299296 -0.010005707682153038 0.0021871242469271718
498 0.023593191003191728 -0.028810393750308173 0.015229649171380557
492 0.016846777045882787 -0.022205007011912293 0.029660173709193716
432 -0.013823175889835136 0.0012590524672572443 0.003570344662629018
1006 -0.0006373968079022491 0.005871447680876979 -0.003731285924032259
391 0.002227707367386595 -0.007039755969555977 0.004040113761373791
1170 0.019448327750792273 0.0058499650915166766 0.016137561942357208
411 -0.01655778429386821 -0.0046347405457671945 0.0008480746142991015
1164 0.025714540789403734 -0.00436907554475783 -0.0018994390915137106
1162 0.0029275794584031943 0.006537835379526264 -0.0026490573115186627
404 -0.001779773890117839 -0.008210055856204672 -0.020596713166352584
415 -0.0014299604540249896 0.005265895280979844 -0.0053256742361667605
486 0.01971100600811759 -0.006764727257295586 -0.0015311611724058939
401 -0.008306771178509064 -0.007008519877607502 -0.013911447267381223
485 -0.02338465054113039 0.0019254553348168274 0.026447444785959246
466 -0.005655806546466826 0.002795281850696422 0.0031890143945057826
1076 -0.016250716818220122 -0.003063635980148687 0.006884352292343694
393 0.0005214158163923504 -0.006155490011213235 0.004259335468825445
407 -0.017732146145408547 -0.018200575105448782 -0.015666782233211714
183 -0.00031564487193611973 -0.028164658380824874 -0.008204328859340826
389 0.01742203449877696 0.011608477642814806 0.006540461770727466
660 0.0004996707682876427 0.026372480934994936 -0.006588247854731077
399 0.005248457042543341 -0.0050552852191895195 -0.0012297569320796145
1008 -0.0030961801113984964 0.0025588881772182874 -0.019109725949033016
493 -0.0036916596822734707 0.00400450147113525 0.0001476406001995327
395 -0.0176556625938649 0.012554799234968314 0.02838468876907101
408 0.007190904562225859 -0.019350422254354155 -0.00024993713036662786
426 -0.024024424252902677 -0.0015516611948934312 -0.017259391783891943
309 -0.0018099425088101274 -0.03806873494426451 0.005664160908888257
417 -0.009195717514011199 0.0032205354470262906 0.010145473213017519
489 -0.0038622069868767665 0.011825055412864206 -0.01453467648652497
1003 0.0022996504438838857 0.00992285931678254 -0.0015804010377233175
491 0.0008082503336177678 -0.010163196106313188 -0.013720928720490584
427 0.006291846692634111 -0.00355025019200516 -0.0022024218484952905
482 -0.014464135706213594 -0.02399885219494067 0.016625433437058256
425 0.006519181836706739 0.004421831137089962 0.003536731374736059
308 0.00543781810818447 -0.005994938036648895 0.008780376064397067
32 0.01898908903277807 -0.00030462744475597914 -0.021800214735993202
394 0.0012634036618309513 0.0022975754374213466 0.0014971640172273173
303 0.0085842309729001 -0.01528534069340424 -0.00017113009060091628
396 -0.020427904299495443 0.0074592591382976955 -0.020823698691989006
475 0.002224870267527704 -6.108078304772961e-05 -0.006843763919899426
496 -0.0022988393561929215 -0.0011913702520087322 -0.0012836283236662277
1165 -0.0028119111260622117 0.0011816982555311914 0.006065537639125324
392 0.010201109508559512 -0.013689424025746329 -0.013094737136413046
1168 -0.0011803077496261084 -0.001523605773130358 0.0038374837087218347
1171 -0.007765879573823053 -0.0014849224388141832 0.0014143554323549276
477 0.0069007296999590035 -0.004634808836954261 0.0004518635332225675
306 -0.024772231286073684 0.016844401989876728 -0.01895377556600636
494 -0.011859686777399712 0.026413266815177625 0.008356474585066125
438 -0.0027940791277455274 -0.004141414861128416 -0.01889902826357291
182 -0.004905834524024102 0.030166499437358593 -0.0018741114426134907
473 -0.003945785038544022 0.0008029736874641529 -0.019496810805458013
301 -0.001564950105147058 -0.000758501401223089 -0.004728822115368255
658 -0.0007087150574632042 -0.0030524423693075718 -0.009751689455934518
418 4.041518662794854e-05 0.004041161225998933 0.0008580408042621887
189 -0.009488358279646442 0.0017825526628218902 0.023805208484454034
187 -0.006389843899155245 0.0048739154579422305 0.0032276371601406115
181 -0.0014252959270063526 -0.00698660352044233 0.003722279980004158
428 0.026828190125111152 0.006881166668799815 -0.021680418602186103
386 -0.001284994207311696 0.014204040271885253 -0.005639165767605738
385 0.0009589954556031453 -0.001654538452382324 0.009540236724588478
387 -0.014523476746571366 0.012522741025676073 -0.0021999319643851655
1079 0.04214300258070513 -0.0051324524162219285 0.011825687963217596
1007 -0.026614077375449602 0.01337133240197796 0.017599694355472133
1077 -0.007454791167531457 -0.009078393442666187 0.005850008073213934
429 -0.01264641568187952 -0.03098930419155028 0.0030906418997702894
317 0.017891150481519673 -0.004325922003203715 0.005926689512815082
1001 0.022440400118720998 0.05130358186964737 -0.03341053185570524
943 1.6953295790929346e-05 -0.0006271956011918923 -0.0016300735150948287
20 -0.014760568732525198 -0.008898735934349202 0.012190377158890356
978 0.01543891782977417 0.002517063336417887 -0.03854734154444215
3 -0.0032005027584269263 0.007572839475543183 0.0030546807501617623
802 0.0006162600715022317 0.0006515701736933806 -0.004831446643158716
1023 0.004570632513517254 0.02208765458979102 -0.0018475320730850543
28 0.00926367452800428 -0.007828595094873663 0.0013428635722023026
8 -0.014854289331890943 0.00041045401489603204 0.005788046239920565
808 0.012018040870530405 0.002826923840551271 -0.0024008354056063107
979 0.005446140424238166 -0.004986110629641208 0.003690132359015923
225 0.0033508407581500864 0.007917657254193172 -0.024433602134586757
230 -0.006704811603937973 0.0024252251038927174 0.00533448380852315
237 -0.003010840147130772 -0.009088489984497608 -0.024838126975405758
948 -0.007692299456077273 -0.0068345321049584195 -0.0053180756547054845
224 0.006666444432608867 -0.020315932067178376 0.004645981652938208
1031 -0.021930062214803207 0.022031762052203772 0.03384173506433818
235 -0.004775275054249362 -0.0026735700443410665 -0.00259099279984336
30 -0.018405951084574206 0.01486091570065476 -0.011719122981314377
975 -0.00410601790469674 -0.026593208056947416 -0.011163896776348561
947 -0.008012581712003086 -0.005108726633133563 -0.02181520359308504
972 0.024117273694713323 0.0018082407840063607 -0.012992493777958794
9 0.0032195005220573922 0.006337066610339353 0.027326954890840777
812 0.00043455984243831 -0.027174441090162413 -0.02634096006822653
806 -0.016218491892791252 0.007185496867116281 -0.0295506417277334
23 0.01756292645727202 -0.001216267591949329 0.005390914996582165
25 0.0005075731674241875 -0.0006468295560147267 0.00031989092860043307
811 -0.0006430795323152009 -0.006616946771518147 0.01447826456300885
969 0.008534003151354455 -0.0031254972778048907 -0.00614537870452194
973 -0.006231483770131854 0.004700332990054791 0.003004101248739497
1034 -0.0028908359485814794 0.028476906723729944 0.010249689728589754
976 0.0006168921703313732 0.009473059708131441 0.0005960143483815068
7 0.005856965651177323 0.004832636489079207 0.001642315887149719
18 -0.03297919525779443 0.04486974543153812 -0.03378850734021689
229 -0.0002060584794426044 -0.005045742021972445 0.00203038736707832
14 -0.02208570852390295 0.018222989537071754 -0.0202313583577752
807 0.005246815432211457 0.0012456434294801511 -0.009216665797810325
12 0.006246748651657293 -0.006975822029970291 0.01950144977677266
13 0.0006917445824491231 0.000291449460094148 0.004092837340752499
1027 -0.006209974510612713 -0.003515472502994245 0.0009144950062363611
944 -0.02157979422100659 0.00783735380942529 -0.007662553766008573
801 0.023912110190550697 0.016141658639397444 0.019437903358873146
1021 -0.0037761151686474394 -0.0034585746392503864 0.0002900061946937048
375 0.004872677400436731 0.0074001417219773545 0.01861159702802583
799 -0.013058399359002864 -0.004442518625816869 -0.008176406214085902
259 0.000989829303252044 -0.004684713216960123 -0.00019056051709306551
1029 0.02199585423854379 -0.017069309837403075 -0.013213526861330148
1022 0.010415700179984668 -0.005148779432274191 -0.01207153502152257
226 0.002161915460318157 -0.003547574803117703 0.002506502836671823
939 0.00827777265500641 0.0036576782417868446 -0.00637043882586955
16 -0.00158694636412509 -0.006210167861615138 0.005856787577287366
946 0.004147512022907276 -0.007448960461689048 0.003549597837057148
1 -0.0019513019440690477 0.011051833730805165 0.00040799786762075687
19 0.009778741354496493 0.0031046535325612275 0.00018154821469163493
2 0.00729903686985843 -0.002998144432118687 -0.014327375022923519
10 0.0013416570187047027 -0.0009633210204328213 -0.007935981047826612
1032 0.010798674146811403 -0.010938922628047704 -0.004399297215371999
227 -0.017807642757705727 0.022357717580466677 0.02155105702237584
980 -0.008453239444752148 -0.01163510352023886 -0.0045256209081555735
222 -0.02333697047310175 -0.02436467045879892 -0.015278162933421937
21 -0.0026041243391453795 -0.024853955657725517 0.009482101854667984
1024 0.0036007779036261937 0.004596812791601286 0.00535476825652621
27 0.0037005807623760423 0.01916756998882174 0.007513015137191219
11 -0.03965706909000845 -0.05096901034161377 0.03439912819376797
950 0.02981171270080855 -0.008794173457792686 0.03460507403317337
968 -0.011191177817394002 0.0066598953998988 -0.01895007084866967
949 -0.00546194370718543 -0.006427731290676832 -0.0025885093834287103
217 0.008064581265125222 -0.00034101421656580863 0.0003142520221703608
803 -0.001042763936433352 0.002697585628441108 0.009701367679466054
17 0.005737924014466583 -0.01462929267218049 0.030117044179746397
982 -0.0028834107940525957 -0.0010035140846659902 0.009056132747759736
15 0.020799588335743777 0.0046698163876276655 -0.0037055337494112522
971 0.0033047558539585375 0.006012087084548058 0.014248968966254483
218 -0.00683378965588418 -0.010457542479244394 0.007207193786765675
223 0.007145501704645804 0.004148449911140074 0.000901142572446524
974 -0.0006618652570503232 0.018559647088013824 0.003929385302941812
805 0.0005256378503481573 -0.001547363782953732 0.0012629706710342702
813 -0.03171748246407284 0.017922544158513957 0.032645356241371
24 -0.020608225952744797 -0.018706060653480384 -0.0035457300367711378
4 0.002105578424984357 0.002359941126576996 -0.006249730155914091
1030 -0.0017671766623618584 -0.0013094460270571923 -0.0010566793934189468
1028 -0.0217468891118305 -0.0029624273833034538 0.009340315566689968
970 0.0005316461706069259 0.008015807788001079 0.002100764393278105
234 0.001177674901443447 0.01139614733137852 -0.032963048627811416
977 -0.0009176362407414274 -0.026809087452593184 -0.0033902371148109567
260 0.008670288589148143 0.0034539146687827763 0.004351668636139772
5 -0.014991384429696934 0.012697154009727717 0.01599986828388844
981 -0.02629755314869579 0.011173055190238214 -0.03233124565949273
6 0.008351134835850522 0.014742178378521643 -0.016721900910410495
22 0.005255730634521444 -0.00017955354753243768 -0.0053242606723137315
1038 -0.021266131366480746 -0.007597885714974227 0.0024780724083444563
987 -0.00878180728846154 0.010158000566797143 0.009034750714367087
255 -0.00770775642488341 0.027222633386259267 -0.001237860018880326
214 0.005834920541257581 -0.0030995616534378366 -0.0038766747442367296
1026 -0.014603129858000975 0.00467635501318008 0.012696413491278521
967 -0.009244938809782261 0.007337868499067782 0.0010780852824886615
216 -0.015886430757543504 0.008303334318803543 0.006357070196289128
315 -0.03842490294216794 -0.017651616610768354 -0.015869307935899697
940 -0.00476419207686199 -0.0030625602429341196 -0.0028032258721255284
942 -0.012463687188429589 -0.010395579438661305 -0.013734030474399913
1033 0.0007286994251567065 0.007285890247292769 -0.0012318149907413183
1036 0.0025000932946759075 0.003955091283429214 -0.0006558273048813227
937 -0.001536737542326844 -0.0007996000253322144 -0.002277037052658178
366 -0.010681970252890844 -0.011861567061920191 0.012279594039037445
220 0.0035154308174537158 0.00033408612904357133 0.0013989719992770564
369 -1.812521472754642e-05 0.02951596722288474 0.010431222198390084
804 -0.0014482868927889107 0.003378663785269924 0.0008081965782934619
232 -0.004573478859703927 -0.004263116227131588 0.0037631983518483327
219 0.0075748782636881435 -0.0023629867696309047 -0.0071784570509412105
985 -0.002188418501314706 0.00594244082419155 -0.008475352220670767
959 0.006542506473812406 -0.028805445556082054 -0.0074857935254520665
986 -0.014352558655928594 -0.013841288948002461 -0.00898005156673578
966 -0.024287229788319636 0.015730816225161464 0.0005963895824308429
253 0.010200251461191594 -0.0012439806904387268 0.0010267517340066825
639 0.01942955375871705 -0.0036128258971977177 0.0009803827497871609
628 0.002017010675356286 0.0032708020183991574 0.0012419297465903392
590 0.004376059589452291 -0.03879680142287506 -0.0016570198845759034
641 -0.016853783251361908 0.02856658223270573 -0.031518038727915296
587 -0.015375152162627907 0.0076261267395123285 0.02395456371980849
965 -0.04102976446677937 -0.002296870731350481 -0.01528929583390747
636 0.0011286363012355852 0.01599399858138034 -0.00980012760136903
769 0.0026851439020858987 0.0008941387245674384 -0.0027998319046844454
632 0.03315796309532822 -0.009969521413132032 0.01990171593004719
964 0.0003586125679196677 0.00447741284906862 0.004698335205072593
653 -0.010771269015087011 -0.005262074887224988 -0.0012818492938208794
765 0.02754764001725076 0.0007921894428542601 0.02131179714337559
586 -0.0026420567101714857 0.0009665217921013472 -0.0016628559688758916
591 0.018538842228808517 -0.011807582286103357 -0.004706766391178932
126 0.0232323707549072 -0.011241547250862172 -0.02180728643358648
670 -0.0008306023851630737 -0.0061138294829143685 0.0027167358456626858
751 0.0006210623638776902 -0.001697506144241664 0.004934637572806588
627 0.006287102107141552 0.01637097686652821 0.011275511232743785
594 0.007864707871668535 0.001620486610513198 0.014690790156047412
583 0.0012647550610101052 -0.005191732986727899 0.007778280329233219
763 -0.005804415565370835 0.0010595798512509195 0.00036957588121431834
768 -1.8075397532546017e-05 -0.002218307401408649 0.03048114847090037
961 -0.002014032743075197 0.0027023589610199513 0.00016330616871415874
757 0.00013971857574315773 -0.0024053972856141496 0.003035592971015488
589 0.000170510994943786 -0.004003771784166801 -0.0057128443486655
773 0.024205344907428667 -0.008612103363014736 0.008939891211211807
203 0.007802322331523381 -0.010950168481146208 0.00996754430024409
766 -0.0035569738719205763 -0.0036775193031494025 0.00537278294781938
774 -0.030152289942181092 0.016931005288991743 -0.011105806527881686
962 -0.0053939667461264575 0.006618697697308202 0.0018714778168494408
760 -0.0012932090997718004 0.0010177649658452185 -0.007558850118970919
762 0.03360536984712088 0.009464145468237118 -0.006911026451390541
634 -0.00920802170201046 0.002338750646802143 0.0010392168385608164
211 -0.0012580314540669654 0.0011074200372892886 -0.004268033993987618
651 0.01997864098170132 -0.012502739151879326 0.0013146786781425307
643 -0.0015879663441798891 0.007208031851958003 -0.0051375084680415715
593 0.005323003736360724 0.015467642799905751 0.01945911933684565
756 0.025366334549417894 0.008652257785413398 0.01433306995091717
676 -0.002668410153900101 -0.008565726333181629 0.0026198881669554372
642 -0.005609097777914403 -0.01657018920761806 -0.023823440283896147
638 0.030841974358305654 0.008878568956711916 -0.016689753344297713
673 0.00032335315815115105 0.0009450643174107006 0.0004947526739089513
633 -0.04800386393272961 -0.020448181261035158 0.0004450195385246145
640 0.011045800974674903 0.0039732045164675165 0.0027497752270763108
764 0.011953855971665494 0.0040848354629345355 -0.01881397879760392
595 0.005950612345278579 0.00515394067272158 0.002140582113370466
674 0.007978511612001691 -0.01416137809017066 0.004011696737765467
675 -0.007705054024456295 -0.006351628438510665 0.005288027814871598
645 0.01087355252943696 0.02494553102471298 0.02689613882907475
671 -0.012016858299731047 0.00903988661829055 -0.01980787329708004
599 0.025462278703223217 -0.021072627932925254 0.004133863252290518
631 -8.58300626625235e-05 -0.0006185011439421695 -0.005932110630078485
600 0.01253232934323526 0.005579195316917501 -0.004023875890508214
212 -0.003342854694824 0.005882540561303759 -1.818280588955333e-05
672 -0.029781293707228946 -0.022726130541415212 0.012873150938869508
597 0.015043284646149782 -0.010687694891638228 0.012673226689975479
677 -0.0027550070062245966 -0.013299033913087845 -0.02914107606512316
637 -0.00247459742964468 -0.0007677204139448084 0.0036049004176625984
767 0.008902983945950235 -0.0074795072599039975 0.004209508340078139
758 0.021035654084563888 0.027256006943803236 0.007281648785338231
588 0.0012116556284347646 -0.0030863483427723895 0.003706864666535854
761 0.009986744823127794 0.003933965994974746 0.005969964455104442
596 0.018023634173293137 0.010771728598062708 0.004835667447380657
598 -0.004618272985081245 -0.007679332775310803 0.000584425185597778
123 0.039749749260552414 0.01483373594222578 -0.009248142170657203
213 0.0011833230913531096 -0.0017007250657169492 -0.017224071446913913
963 0.022634588021667356 -0.01255127245275458 -0.00454554899782748
585 0.007460150524645783 0.014489584844896052 -0.005784646712780392
754 -0.00547542534052454 0.001423692034330468 0.009159110585645629
625 -0.004017191576955525 -0.0014521089632765951 -0.0015662007314500297
759 -0.023695692035094074 0.0035913658336080125 0.018574000908938525
772 -0.004064721471974124 -0.0012688310845455155 0.0021650883336758685
667 -0.0037449595918326983 -0.0011194883822415761 -0.00883744689765416
592 -0.003134699118240637 -0.0006089959694942255 -0.0019609509264957225
124 -0.00016184812686726753 -0.00011355748362562739 -0.0020978697157445396
626 0.009658273241561462 -0.007107898637542126 -0.009259929162500338
668 -0.0012058413725002466 0.014804981619174902 -0.015152461191101562
584 0.011853348999659629 -0.02385045338299549 0.0032937433506661905
749 0.0043272485997020915 -0.01260820037372216 0.007449669751276763
678 0.01616026178739625 -0.004093604449524031 0.005064655668784597
669 0.009011070742689833 0.00853871296764941 0.0075837063208471596
755 0.024449161371554715 0.015102984978445975 0.013388405115049306
1025 -0.002609034957836038 -0.017022401876517112 0.02223910377868175
648 0.0320042012437833 0.022947978617322996 0.014320600539412401
750 -0.029356599091311126 -0.011169859043786867 0.007715417180757397
635 -0.011252216619348892 0.018110919725881015 -0.045444301858033644
666 -0.020662900103937037 -0.003532391828877905 0.006362333812098342
121 -8.328973192323789e-05 -0.0018753118321938266 -0.005877051925452292
459 -0.013845790050163977 -0.003536660531825246 0.01828374036136995
441 0.010967116409853575 -0.004695117032161228 0.005991586140018676
445 -0.0062072557202783145 0.008527910576032527 -0.0032788237122546872
775 -0.001371833867021118 -0.004141133324596853 -0.004413999677911037
383 0.029761839950659747 -0.0016033378318222934 0.014067206364434922
1185 0.0104569317884425 -0.00961474580475019 0.02150207538583118
1190 0.013805249982302733 0.013868873653422983 0.004022959237887165
439 -0.004001579411512148 0.00028076156601383935 0.009063810107039025
655 0.000387631720499271 0.0019850893310351565 0.0028419552440884653
450 -0.005398483143493494 -0.010320751594896344 0.021395037332896594
254 -0.012666144255101121 0.016911888716704175 -0.012998413516192563
377 0.015189313385091475 0.005297725453633013 0.007460333075951132
248 0.033211530223950216 0.007419344921345381 -0.0036450269790289738
1194 -0.006688492830691536 -0.005738614041402951 -0.004080335632175745
446 -0.017955792219900943 0.004770977487973097 0.01208708508276424
371 -0.005236915323198602 0.003833708114874314 0.002387145060959869
310 0.0047094752586163795 0.0036620510066964797 -0.0010693714910001764
938 0.02085019391789232 -0.004412782899459413 -0.010594160661200794
33 -0.003490519739194371 0.020857988264958174 0.0038864556476065327
1179 -0.021411165826108386 -0.017694809632514585 0.0057956964415747025
465 -0.00627070719837466 0.012743380630804208 0.024114745180713167
656 -0.019654398206233124 -0.010942075913964018 0.0047358133822365854
304 0.0043641748260154906 -0.0011101385705808552 -0.00468809863315059
442 0.007196386833674965 0.001201081530550024 -0.004450839507536087
302 0.0004589372004903319 0.010596136876117677 -0.00955969796518339
452 0.011758635302154322 0.005892745013993771 -0.003862094126717922
455 -0.0062545464594885546 -0.007548861248899724 0.004871200400251447
447 0.012423359418846813 -0.0036104642912604444 -0.01847327527397509
379 -0.0010426728541725412 -0.004749285067831003 -0.0036050313193322085
462 -4.78103708803614e-05 -0.0214547783801656 -0.02226138249545414
770 -0.004795818766995958 -0.032668783261789514 0.00012704202124333506
460 0.0035739598686002354 -0.008542913733573673 -0.004284200183842
367 -0.0006768971684720996 -0.00462557355622703 -0.005268028559461425
464 0.005089270951087635 -0.0028048957237496435 -0.0008384580748232899
1191 0.0011759795526353864 0.013282396330914529 0.00718528874939477
453 0.01768637297526881 0.02153855422384468 0.0036328218115966138
1195 -0.002734012351386095 -0.006515543859896943 -0.0010666406975751127
378 -0.008047093350562896 0.003588335763184237 0.005021069473369115
440 -0.014947836786882142 -0.005528378772065953 -0.020086964265158967
1188 0.0033558847228804508 -0.04217013025612999 0.015032113847352977
1199 0.012065878147497157 0.0072042636331126125 0.02544635845250574
1193 0.013003599462046822 -0.004215700697533386 -0.0031139224601231387
457 -0.002420310735590632 -0.0018350016565152755 0.008055042081736083
1192 -0.0043344787122346524 0.00013297472651435516 -0.0027857666953505673
650 -0.014247842843451979 -0.013358709151662212 0.004604974119746425
365 0.006090961838529863 0.0023613740388926945 -0.010200254379427334
376 -0.0064531078347416886 0.003490472389566224 0.00446916503572863
1178 0.011328254992838717 -0.0008173536570194729 -0.004017436298449132
644 0.003511718509688262 -0.021708436524774142 0.03493181988161406
456 0.0033228273315381533 0.013238685391017763 0.007503366156453384
458 0.01229573819905921 -0.006174009870682692 0.005218892853375323
449 0.022541496439333036 -0.021375098958409597 -0.0008622146580305276
448 -0.0056183485552550785 -0.0013833348660828662 0.0024271593656395806
382 0.0004143960919219713 0.0046545923052964564 -0.007937600995855604
363 0.0022905254233494955 -0.020466913282490968 0.032769205728468136
461 0.007970392969580046 0.019708708726335285 0.006955981167530027
1184 0.0054806045388528 0.008712863591207785 0.006537324196997162
1186 0.005656832052639336 0.00542665059551507 0.011596553938120074
1187 -0.009474756457061013 -0.013534581753610764 0.0036837176069487733
951 -0.005204988406406269 0.003784965031978076 0.029527850674289778
443 0.015781784383441078 0.024551798982948583 0.024740205677666133
370 0.007616651023351156 -0.0058727885829768355 0.004336188131738801
454 -0.004537405173532369 -0.0010380431687710026 0.006946959129079057
305 0.01256283932230335 0.004471023577314217 0.018706707237959464
654 0.011427267002268593 0.01709306554525134 0.022061305851273375
647 -0.023568874552337617 -0.007618471635497825 0.005039231935911952
451 -0.0006074720196035534 -0.0033949184774630793 0.001653836956725848
374 0.014633845691244384 0.01540589086268605 0.009747888275320641
776 -0.005787237508900426 0.005010227949182803 -0.0056862594362976976
372 -0.0071799590192347315 0.0042916419823421275 0.014568177105424747
945 0.0034921036578813005 0.0031297031376219327 0.014365590061457817
368 -0.0033186951035653017 0.008243250214870853 -0.005567576024505048
1196 0.0004491747705002251 0.025171211379507466 0.022839899648496153
1180 -0.006496862613840022 -0.0016536158539816484 -0.008417323957719491
1200 -0.017772749698880097 0.002267060622499368 0.010872780689719247
1183 0.0015145393698113938 0.00041562299576736666 0.00044850711854679213
444 0.002594667552138426 0.0058535085353191504 -0.0027197956342596644
1198 -0.0019597187379614424 -0.003935081358860532 0.014590645898146135
1189 -0.0055876363689073396 0.0017587075255730473 -0.004935343103102613
373 -0.0023201812814209965 -0.0005936874213617782 0.010383396028111551
122 0.0090717565897426 0.02345507686029775 0.004478016443997137
1197 -0.013138243596593352 -0.009088835085860381 0.017104788582723057
364 0.003640440957517345 0.009219426451616369 0.0012916766867014694
463 -0.006996167190965776 0.008036376498099268 0.004070701444114983
311 -0.002826023621981022 0.03482623051421852 -0.009440515023027011
381 -0.013940662385440821 -0.004918133863591025 0.026526867606879345
1182 -0.0035658556410085437 0.015076902562540325 0.0014777752860491858
1181 0.004872369442230982 0.01541244994348201 -0.006858817077847055
125 -0.024570182409151032 0.05273030638191557 -0.032026404724313326
1177 0.002880896166042864 0.0035504186506270154 -0.000856003725700834
362 -0.022005950627531665 0.01723786334253843 -0.02025325981829143
652 0.0012036607899237285 -0.0015313647987152588 0.004438543095965373
649 0.004368134044100535 0.003380338645732349 0.0018794294236134696
646 0.004402669470101248 -0.013615344831355666 0.0031595136040122656
384 0.003218593637752093 0.0027476787559963228 0.05663177212660753
361 0.0026169757988757313 0.009009403891196102 -0.0028485903621567393
26 0.02126575540805152 0.006265037666572972 -0.014903787149253063
657 0.004012491083233494 -0.003447521903723217 -0.0045179442586836295
31 0.0049416462310867045 -0.002458540834535521 0.0034835253070103676
771 0.007911568621599337 -0.009165877585592808 0.019992134862967692
777 0.023602390410211314 0.012620077649752665 -0.01193765156426285
236 0.01599875860706289 0.010977162127405701 0.021729515129628847
380 -0.02569285720910937 0.001165152254431172 -0.020287652931194385

Bonds

1 1 718 719
2 1 718 720
3 1 331 332
4 1 331 333
5 2 331 334
6 1 1051 1052
7 1 1051 1053
8 2 1051 1054
9 1 280 281
10 1 280 282
11 2 280 283
12 1 712 713
13 1 712 714
14 2 712 715
15 1 1057 1058
16 1 1057 1059
17 2 1057 1060
18 1 1042 1043
19 1 1042 1044
20 2 1042 1045
21 1 1141 1142
22 1 1141 1143
23 2 1141 1144
24 1 277 278
25 1 277 279
26 2 277 280
27 1 607 608
28 1 607 609
29 2 607 610
30 1 1039 1040
31 1 1039 1041
32 2 1039 1042
33 1 325 326
34 1 325 327
35 2 325 328
36 1 706 707
37 1 706 708
38 2 706 709
39 1 604 605
40 1 604 606
41 2 604 607
42 1 1045 1046
43 1 1045 1047
44 2 1045 1048
45 1 1048 1049
46 1 1048 1050
47 2 1048 1051
48 1 1009 1010
49 1 1009 1011
50 2 1009 1012
51 1 709 710
52 1 709 711
53 2 709 712
54 1 613 614
55 1 613 615
56 2 613 616
57 1 715 716
58 1 715 717
59 2 715 718
60 1 265 266
61 1 265 267
62 2 265 268
63 1 274 275
64 1 274 276
65 2 274 277
66 1 1015 1016
67 1 1015 1017
68 2 1015 1018
69 1 1054 1055
70 1 1054 1056
71 2 1054 1057
72 1 601 602
73 1 601 603
74 2 601 604
75 1 610 611
76 1 610 612
77 2 610 613
78 1 835 836
79 1 835 837
80 2 835 838
81 1 703 704
82 1 703 705
83 2 703 706
84 1 271 272
85 1 271 273
86 2 271 274
87 1 268 269
88 1 268 270
89 2 268 271
90 1 838 839
91 1 838 840
92 1 1063 1064
93 1 1063 1065
94 2 1063 1066
95 1 328 329
96 1 328 330
97 2 328 331
98 1 1060 1061
99 1 1060 1062
100 2 1060 1063
101 1 1012 1013
102 1 1012 1014
103 2 1012 1015
104 1 334 335
105 1 334 336
106 2 334 337
107 1 100 101
108 1 100 102
109 2 100 103
110 1 298 299
111 1 298 300
112 1 850 851
113 1 850 852
114 2 850 853
115 1 97 98
116 1 97 99
117 2 97 100
118 1 853 854
119 1 853 855
120 2 853 856
121 1 1159 1160
122 1 1159 1161
123 2 1159 1162
124 1 295 296
125 1 295 297
126 2 295 298
127 1 1150 1151
128 1 1150 1152
129 2 1150 1153
130 1 286 287
131 1 286 288
132 2 286 289
133 1 1147 1148
134 1 1147 1149
135 2 1147 1150
136 1 82 83
137 1 82 84
138 2 82 85
139 1 88 89
140 1 88 90
141 2 88 91
142 1 292 293
143 1 292 294
144 2 292 295
145 1 352 353
146 1 352 354
147 2 352 355
148 1 841 842
149 1 841 843
150 2 841 844
151 1 349 350
152 1 349 351
153 2 349 352
154 1 94 95
155 1 94 96
156 2 94 97
157 1 1156 1157
158 1 1156 1158
159 2 1156 1159
160 1 154 155
161 1 154 156
162 2 154 157
163 1 289 290
164 1 289 291
165 2 289 292
166 1 343 344
167 1 343 345
168 2 343 346
169 1 160 161
170 1 160 162
171 2 160 163
172 1 85 86
173 1 85 87
174 2 85 88
175 1 847 848
176 1 847 849
177 2 847 850
178 1 844 845
179 1 844 846
180 2 844 847
181 1 1153 1154
182 1 1153 1155
183 2 1153 1156
184 1 91 92
185 1 91 93
186 2 91 94
187 1 616 617
188 1 616 618
189 2 616 619
190 1 103 104
191 1 103 105
192 2 103 106
193 1 622 623
194 1 622 624
195 2 622 625
196 1 157 158
197 1 157 159
198 2 157 160
199 1 79 80
200 1 79 81
201 2 79 82
202 1 283 284
203 1 283 285
204 2 283 286
205 1 619 620
206 1 619 621
207 2 619 622
208 1 106 107
209 1 106 108
210 2 106 109
211 1 355 356
212 1 355 357
213 2 355 358
214 1 1132 1133
215 1 1132 1134
216 2 1132 1135
217 1 46 47
218 1 46 48
219 2 46 49
220 1 37 38
221 1 37 39
222 2 37 40
223 1 1129 1130
224 1 1129 1131
225 2 1129 1132
226 1 1135 1136
227 1 1135 1137
228 2 1135 1138
229 1 40 41
230 1 40 42
231 2 40 43
232 1 76 77
233 1 76 78
234 2 76 79
235 1 55 56
236 1 55 57
237 2 55 58
238 1 34 35
239 1 34 36
240 2 34 37
241 1 1075 1076
242 1 1075 1077
243 2 1075 1078
244 1 49 50
245 1 49 51
246 2 49 52
247 1 1066 1067
248 1 1066 1068
249 2 1066 1069
250 1 1138 1139
251 1 1138 1140
252 1 907 908
253 1 907 909
254 2 907 910
255 1 52 53
256 1 52 54
257 2 52 55
258 1 904 905
259 1 904 906
260 2 904 907
261 1 43 44
262 1 43 45
263 2 43 46
264 1 910 911
265 1 910 912
266 2 910 913
267 1 58 59
268 1 58 60
269 1 913 914
270 1 913 915
271 2 913 916
272 1 478 479
273 1 478 480
274 1 358 359
275 1 358 360
276 1 1072 1073
277 1 1072 1074
278 2 1072 1075
279 1 901 902
280 1 901 903
281 2 901 904
282 1 1069 1070
283 1 1069 1071
284 2 1069 1072
285 1 1126 1127
286 1 1126 1128
287 2 1126 1129
288 1 823 824
289 1 823 825
290 2 823 826
291 1 1102 1103
292 1 1102 1104
293 2 1102 1105
294 1 829 830
295 1 829 831
296 2 829 832
297 1 1114 1115
298 1 1114 1116
299 2 1114 1117
300 1 1093 1094
301 1 1093 1095
302 2 1093 1096
303 1 832 833
304 1 832 834
305 2 832 835
306 1 700 701
307 1 700 702
308 2 700 703
309 1 1105 1106
310 1 1105 1107
311 2 1105 1108
312 1 175 176
313 1 175 177
314 2 175 178
315 1 1099 1100
316 1 1099 1101
317 2 1099 1102
318 1 817 818
319 1 817 819
320 2 817 820
321 1 820 821
322 1 820 822
323 2 820 823
324 1 697 698
325 1 697 699
326 2 697 700
327 1 172 173
328 1 172 174
329 2 172 175
330 1 814 815
331 1 814 816
332 2 814 817
333 1 169 170
334 1 169 171
335 2 169 172
336 1 826 827
337 1 826 828
338 2 826 829
339 1 178 179
340 1 178 180
341 1 238 239
342 1 238 240
343 1 1096 1097
344 1 1096 1098
345 2 1096 1099
346 1 1111 1112
347 1 1111 1113
348 2 1111 1114
349 1 691 692
350 1 691 693
351 2 691 694
352 1 1108 1109
353 1 1108 1110
354 2 1108 1111
355 1 694 695
356 1 694 696
357 2 694 697
358 1 1018 1019
359 1 1018 1020
360 1 256 257
361 1 256 258
362 2 256 259
363 1 778 779
364 1 778 780
365 1 895 896
366 1 895 897
367 2 895 898
368 1 1090 1091
369 1 1090 1092
370 2 1090 1093
371 1 679 680
372 1 679 681
373 2 679 682
374 1 688 689
375 1 688 690
376 2 688 691
377 1 1087 1088
378 1 1087 1089
379 2 1087 1090
380 1 871 872
381 1 871 873
382 2 871 874
383 1 892 893
384 1 892 894
385 2 892 895
386 1 574 575
387 1 574 576
388 2 574 577
389 1 340 341
390 1 340 342
391 2 340 343
392 1 1084 1085
393 1 1084 1086
394 2 1084 1087
395 1 865 866
396 1 865 867
397 2 865 868
398 1 889 890
399 1 889 891
400 2 889 892
401 1 859 860
402 1 859 861
403 2 859 862
404 1 883 884
405 1 883 885
406 2 883 886
407 1 163 164
408 1 163 165
409 2 163 166
410 1 862 863
411 1 862 864
412 2 862 865
413 1 877 878
414 1 877 879
415 2 877 880
416 1 898 899
417 1 898 900
418 1 1081 1082
419 1 1081 1083
420 2 1081 1084
421 1 868 869
422 1 868 870
423 2 868 871
424 1 337 338
425 1 337 339
426 2 337 340
427 1 880 881
428 1 880 882
429 2 880 883
430 1 886 887
431 1 886 888
432 2 886 889
433 1 856 857
434 1 856 858
435 2 856 859
436 1 685 686
437 1 685 687
438 2 685 688
439 1 166 167
440 1 166 168
441 2 166 169
442 1 682 683
443 1 682 684
444 2 682 685
445 1 577 578
446 1 577 579
447 2 577 580
448 1 874 875
449 1 874 876
450 2 874 877
451 1 580 581
452 1 580 582
453 2 580 583
454 1 346 347
455 1 346 348
456 2 346 349
457 1 244 245
458 1 244 246
459 2 244 247
460 1 1117 1118
461 1 1117 1119
462 2 1117 1120
463 1 916 917
464 1 916 918
465 2 916 919
466 1 547 548
467 1 547 549
468 2 547 550
469 1 70 71
470 1 70 72
471 2 70 73
472 1 919 920
473 1 919 921
474 2 919 922
475 1 925 926
476 1 925 927
477 2 925 928
478 1 544 545
479 1 544 546
480 2 544 547
481 1 922 923
482 1 922 924
483 2 922 925
484 1 568 569
485 1 568 570
486 2 568 571
487 1 931 932
488 1 931 933
489 2 931 934
490 1 571 572
491 1 571 573
492 2 571 574
493 1 1123 1124
494 1 1123 1125
495 2 1123 1126
496 1 109 110
497 1 109 111
498 2 109 112
499 1 550 551
500 1 550 552
501 2 550 553
502 1 73 74
503 1 73 75
504 2 73 76
505 1 1120 1121
506 1 1120 1122
507 2 1120 1123
508 1 556 557
509 1 556 558
510 2 556 559
511 1 562 563
512 1 562 564
513 2 562 565
514 1 928 929
515 1 928 930
516 2 928 931
517 1 118 119
518 1 118 120
519 1 559 560
520 1 559 561
521 2 559 562
522 1 250 251
523 1 250 252
524 2 250 253
525 1 247 248
526 1 247 249
527 2 247 250
528 1 67 68
529 1 67 69
530 2 67 70
531 1 565 566
532 1 565 567
533 2 565 568
534 1 112 113
535 1 112 114
536 2 112 115
537 1 115 116
538 1 115 117
539 2 115 118
540 1 64 65
541 1 64 66
542 2 64 67
543 1 553 554
544 1 553 555
545 2 553 556
546 1 241 242
547 1 241 243
548 2 241 244
549 1 61 62
550 1 61 63
551 2 61 64
552 1 541 542
553 1 541 543
554 2 541 544
555 1 934 935
556 1 934 936
557 2 934 937
558 1 952 953
559 1 952 954
560 2 952 955
561 1 532 533
562 1 532 534
563 2 532 535
564 1 739 740
565 1 739 741
566 2 739 742
567 1 523 524
568 1 523 525
569 2 523 526
570 1 724 725
571 1 724 726
572 2 724 727
573 1 733 734
574 1 733 735
575 2 733 736
576 1 997 998
577 1 997 999
578 2 997 1000
579 1 529 530
580 1 529 531
581 2 529 532
582 1 262 263
583 1 262 264
584 2 262 265
585 1 727 728
586 1 727 729
587 2 727 730
588 1 520 521
589 1 520 522
590 2 520 523
591 1 994 995
592 1 994 996
593 2 994 997
594 1 796 797
595 1 796 798
596 2 796 799
597 1 730 731
598 1 730 732
599 2 730 733
600 1 526 527
601 1 526 528
602 2 526 529
603 1 313 314
604 1 313 315
605 2 313 316
606 1 991 992
607 1 991 993
608 2 991 994
609 1 742 743
610 1 742 744
611 2 742 745
612 1 535 536
613 1 535 537
614 2 535 538
615 1 322 323
616 1 322 324
617 2 322 325
618 1 958 959
619 1 958 960
620 1 736 737
621 1 736 738
622 2 736 739
623 1 421 422
624 1 421 423
625 2 421 424
626 1 517 518
627 1 517 519
628 2 517 520
629 1 988 989
630 1 988 990
631 2 988 991
632 1 955 956
633 1 955 957
634 2 955 958
635 1 538 539
636 1 538 540
637 1 1078 1079
638 1 1078 1080
639 1 721 722
640 1 721 723
641 2 721 724
642 1 319 320
643 1 319 321
644 2 319 322
645 1 1000 1001
646 1 1000 1002
647 2 1000 1003
648 1 316 317
649 1 316 318
650 2 316 319
651 1 205 206
652 1 205 207
653 2 205 208
654 1 193 194
655 1 193 195
656 2 193 196
657 1 136 137
658 1 136 138
659 2 136 139
660 1 508 509
661 1 508 510
662 2 508 511
663 1 184 185
664 1 184 186
665 2 184 187
666 1 781 782
667 1 781 783
668 2 781 784
669 1 142 143
670 1 142 144
671 2 142 145
672 1 133 134
673 1 133 135
674 2 133 136
675 1 190 191
676 1 190 192
677 2 190 193
678 1 196 197
679 1 196 198
680 2 196 199
681 1 148 149
682 1 148 150
683 2 148 151
684 1 130 131
685 1 130 132
686 2 130 133
687 1 748 749
688 1 748 750
689 2 748 751
690 1 664 665
691 1 664 666
692 2 664 667
693 1 787 788
694 1 787 789
695 2 787 790
696 1 139 140
697 1 139 141
698 2 139 142
699 1 127 128
700 1 127 129
701 2 127 130
702 1 505 506
703 1 505 507
704 2 505 508
705 1 202 203
706 1 202 204
707 2 202 205
708 1 502 503
709 1 502 504
710 2 502 505
711 1 499 500
712 1 499 501
713 2 499 502
714 1 784 785
715 1 784 786
716 2 784 787
717 1 199 200
718 1 199 201
719 2 199 202
720 1 745 746
721 1 745 747
722 2 745 748
723 1 514 515
724 1 514 516
725 2 514 517
726 1 661 662
727 1 661 663
728 2 661 664
729 1 511 512
730 1 511 513
731 2 511 514
732 1 145 146
733 1 145 147
734 2 145 148
735 1 790 791
736 1 790 792
737 2 790 793
738 1 208 209
739 1 208 210
740 2 208 211
741 1 151 152
742 1 151 153
743 2 151 154
744 1 793 794
745 1 793 795
746 2 793 796
747 1 1144 1145
748 1 1144 1146
749 2 1144 1147
750 1 424 425
751 1 424 426
752 2 424 427
753 1 406 407
754 1 406 408
755 2 406 409
756 1 307 308
757 1 307 309
758 2 307 310
759 1 400 401
760 1 400 402
761 2 400 403
762 1 1174 1175
763 1 1174 1176
764 2 1174 1177
765 1 436 437
766 1 436 438
767 2 436 439
768 1 472 473
769 1 472 474
770 2 472 475
771 1 490 491
772 1 490 492
773 2 490 493
774 1 403 404
775 1 403 405
776 2 403 406
777 1 469 470
778 1 469 471
779 2 469 472
780 1 484 485
781 1 484 486
782 2 484 487
783 1 487 488
784 1 487 489
785 2 487 490
786 1 388 389
787 1 388 390
788 2 388 391
789 1 481 482
790 1 481 483
791 2 481 484
792 1 433 434
793 1 433 435
794 2 433 436
795 1 412 413
796 1 412 414
797 2 412 415
798 1 397 398
799 1 397 399
800 2 397 400
801 1 430 431
802 1 430 432
803 2 430 433
804 1 409 410
805 1 409 411
806 2 409 412
807 1 1006 1007
808 1 1006 1008
809 2 1006 1009
810 1 391 392
811 1 391 393
812 2 391 394
813 1 1162 1163
814 1 1162 1164
815 2 1162 1165
816 1 415 416
817 1 415 417
818 2 415 418
819 1 466 467
820 1 466 468
821 2 466 469
822 1 493 494
823 1 493 495
824 2 493 496
825 1 1003 1004
826 1 1003 1005
827 2 1003 1006
828 1 427 428
829 1 427 429
830 2 427 430
831 1 394 395
832 1 394 396
833 2 394 397
834 1 475 476
835 1 475 477
836 2 475 478
837 1 496 497
838 1 496 498
839 2 496 499
840 1 1165 1166
841 1 1165 1167
842 2 1165 1168
843 1 1168 1169
844 1 1168 1170
845 2 1168 1171
846 1 1171 1172
847 1 1171 1173
848 2 1171 1174
849 1 301 302
850 1 301 303
851 2 301 304
852 1 658 659
853 1 658 660
854 1 418 419
855 1 418 420
856 1 187 188
857 1 187 189
858 2 187 190
859 1 181 182
860 1 181 183
861 2 181 184
862 1 385 386
863 1 385 387
864 2 385 388
865 1 943 944
866 1 943 945
867 2 943 946
868 1 802 803
869 1 802 804
870 2 802 805
871 1 28 29
872 1 28 30
873 2 28 31
874 1 808 809
875 1 808 810
876 2 808 811
877 1 979 980
878 1 979 981
879 2 979 982
880 1 235 236
881 1 235 237
882 2 235 238
883 1 25 26
884 1 25 27
885 2 25 28
886 1 811 812
887 1 811 813
888 2 811 814
889 1 973 974
890 1 973 975
891 2 973 976
892 1 976 977
893 1 976 978
894 2 976 979
895 1 7 8
896 1 7 9
897 2 7 10
898 1 229 230
899 1 229 231
900 2 229 232
901 1 13 14
902 1 13 15
903 2 13 16
904 1 1027 1028
905 1 1027 1029
906 2 1027 1030
907 1 1021 1022
908 1 1021 1023
909 2 1021 1024
910 1 799 800
911 1 799 801
912 2 799 802
913 1 259 260
914 1 259 261
915 2 259 262
916 1 226 227
917 1 226 228
918 2 226 229
919 1 16 17
920 1 16 18
921 2 16 19
922 1 946 947
923 1 946 948
924 2 946 949
925 1 1 2
926 1 1 3
927 2 1 4
928 1 19 20
929 1 19 21
930 2 19 22
931 1 10 11
932 1 10 12
933 2 10 13
934 1 1024 1025
935 1 1024 1026
936 2 1024 1027
937 1 949 950
938 1 949 951
939 2 949 952
940 1 217 218
941 1 217 219
942 2 217 220
943 1 982 983
944 1 982 984
945 2 982 985
946 1 223 224
947 1 223 225
948 2 223 226
949 1 805 806
950 1 805 807
951 2 805 808
952 1 4 5
953 1 4 6
954 2 4 7
955 1 1030 1031
956 1 1030 1032
957 2 1030 1033
958 1 970 971
959 1 970 972
960 2 970 973
961 1 22 23
962 1 22 24
963 2 22 25
964 1 214 215
965 1 214 216
966 2 214 217
967 1 967 968
968 1 967 969
969 2 967 970
970 1 940 941
971 1 940 942
972 2 940 943
973 1 1033 1034
974 1 1033 1035
975 2 1033 1036
976 1 1036 1037
977 1 1036 1038
978 2 1036 1039
979 1 937 938
980 1 937 939
981 2 937 940
982 1 220 221
983 1 220 222
984 2 220 223
985 1 232 233
986 1 232 234
987 2 232 235
988 1 985 986
989 1 985 987
990 2 985 988
991 1 253 254
992 1 253 255
993 2 253 256
994 1 628 629
995 1 628 630
996 2 628 631
997 1 769 770
998 1 769 771
999 2 769 772
1000 1 964 965
1001 1 964 966
1002 2 964 967
1003 1 586 587
1004 1 586 588
1005 2 586 589
1006 1 670 671
1007 1 670 672
1008 2 670 673
1009 1 751 752
1010 1 751 753
1011 2 751 754
1012 1 583 584
1013 1 583 585
1014 2 583 586
1015 1 763 764
1016 1 763 765
1017 2 763 766
1018 1 961 962
1019 1 961 963
1020 2 961 964
1021 1 757 758
1022 1 757 759
1023 2 757 760
1024 1 589 590
1025 1 589 591
1026 2 589 592
1027 1 766 767
1028 1 766 768
1029 2 766 769
1030 1 760 761
1031 1 760 762
1032 2 760 763
1033 1 634 635
1034 1 634 636
1035 2 634 637
1036 1 211 212
1037 1 211 213
1038 2 211 214
1039 1 643 644
1040 1 643 645
1041 2 643 646
1042 1 676 677
1043 1 676 678
1044 2 676 679
1045 1 673 674
1046 1 673 675
1047 2 673 676
1048 1 640 641
1049 1 640 642
1050 2 640 643
1051 1 595 596
1052 1 595 597
1053 2 595 598
1054 1 631 632
1055 1 631 633
1056 2 631 634
1057 1 637 638
1058 1 637 639
1059 2 637 640
1060 1 598 599
1061 1 598 600
1062 1 754 755
1063 1 754 756
1064 2 754 757
1065 1 625 626
1066 1 625 627
1067 2 625 628
1068 1 772 773
1069 1 772 774
1070 2 772 775
1071 1 667 668
1072 1 667 669
1073 2 667 670
1074 1 592 593
1075 1 592 594
1076 2 592 595
1077 1 124 125
1078 1 124 126
1079 2 124 127
1080 1 121 122
1081 1 121 123
1082 2 121 124
1083 1 445 446
1084 1 445 447
1085 2 445 448
1086 1 775 776
1087 1 775 777
1088 2 775 778
1089 1 439 440
1090 1 439 441
1091 2 439 442
1092 1 655 656
1093 1 655 657
1094 2 655 658
1095 1 310 311
1096 1 310 312
1097 2 310 313
1098 1 304 305
1099 1 304 306
1100 2 304 307
1101 1 442 443
1102 1 442 444
1103 2 442 445
1104 1 379 380
1105 1 379 381
1106 2 379 382
1107 1 460 461
1108 1 460 462
1109 2 460 463
1110 1 367 368
1111 1 367 369
1112 2 367 370
1113 1 1195 1196
1114 1 1195 1197
1115 2 1195 1198
1116 1 457 458
1117 1 457 459
1118 2 457 460
1119 1 1192 1193
1120 1 1192 1194
1121 2 1192 1195
1122 1 376 377
1123 1 376 378
1124 2 376 379
1125 1 448 449
1126 1 448 450
1127 2 448 451
1128 1 382 383
1129 1 382 384
1130 2 382 385
1131 1 1186 1187
1132 1 1186 1188
1133 2 1186 1189
1134 1 370 371
1135 1 370 372
1136 2 370 373
1137 1 454 455
1138 1 454 456
1139 2 454 457
1140 1 451 452
1141 1 451 453
1142 2 451 454
1143 1 1180 1181
1144 1 1180 1182
1145 2 1180 1183
1146 1 1183 1184
1147 1 1183 1185
1148 2 1183 1186
1149 1 1198 1199
1150 1 1198 1200
1151 1 1189 1190
1152 1 1189 1191
1153 2 1189 1192
1154 1 373 374
1155 1 373 375
1156 2 373 376
1157 1 364 365
1158 1 364 366
1159 2 364 367
1160 1 463 464
1161 1 463 465
1162 2 463 466
1163 1 1177 1178
1164 1 1177 1179
1165 2 1177 1180
1166 1 652 653
1167 1 652 654
1168 2 652 655
1169 1 649 650
1170 1 649 651
1171 2 649 652
1172 1 646 647
1173 1 646 648
1174 2 646 649
1175 1 361 362
1176 1 361 363
1177 2 361 364
1178 1 31 32
1179 1 31 33
1180 2 31 34

Angles

1 2 715 718 719
2 2 715 718 720
3 1 719 718 720
4 2 328 331 332
5 2 328 331 333
6 3 328 331 334
7 1 332 331 333
8 2 332 331 334
9 2 333 331 334
10 2 1048 1051 1052
11 2 1048 1051 1053
12 3 1048 1051 1054
13 1 1052 1051 1053
14 2 1052 1051 1054
15 2 1053 1051 1054
16 2 277 280 281
17 2 277 280 282
18 3 277 280 283
19 1 281 280 282
20 2 281 280 283
21 2 282 280 283
22 2 709 712 713
23 2 709 712 714
24 3 709 712 715
25 1 713 712 714
26 2 713 712 715
27 2 714 712 715
28 2 1054 1057 1058
29 2 1054 1057 1059
30 3 1054 1057 1060
31 1 1058 1057 1059
32 2 1058 1057 1060
33 2 1059 1057 1060
34 2 1039 1042 1043
35 2 1039 1042 1044
36 3 1039 1042 1045
37 1 1043 1042 1044
38 2 1043 1042 1045
39 2 1044 1042 1045
40 1 1142 1141 1143
41 2 1142 1141 1144
42 2 1143 1141 1144
43 2 274 277 278
44 2 274 277 279
45 3 274 277 280
46 1 278 277 279
47 2 278 277 280
48 2 279 277 280
49 2 604 607 608
50 2 604 607 609
51 3 604 607 610
52 1 608 607 609
53 2 608 607 610
54 2 609 607 610
55 2 1036 1039 1040
56 2 1036 1039 1041
57 3 1036 1039 1042
58 1 1040 1039 1041
59 2 1040 1039 1042
60 2 1041 1039 1042
61 2 322 325 326
62 2 322 325 327
63 3 322 325 328
64 1 326 325 327
65 2 326 325 328
66 2 327 325 328
67 2 703 706 707
68 2 703 706 708
69 3 703 706 709
70 1 707 706 708
71 2 707 706 709
72 2 708 706 709
73 2 601 604 605
74 2 601 604 606
75 3 601 604 607
76 1 605 604 606
77 2 605 604 607
78 2 606 604 607
79 2 1042 1045 1046
80 2 1042 1045 1047
81 3 1042 1045 1048
82 1 1046 1045 1047
83 2 1046 1045 1048
84 2 1047 1045 1048
85 2 1045 1048 1049
86 2 1045 1048 1050
87 3 1045 1048 1051
88 1 1049 1048 1050
89 2 1049 1048 1051
90 2 1050 1048 1051
91 2 1006 1009 1010
92 2 1006 1009 1011
93 3 1006 1009 1012
94 1 1010 1009 1011
95 2 1010 1009 1012
96 2 1011 1009 1012
97 2 706 709 710
98 2 706 709 711
99 3 706 709 712
100 1 710 709 711
101 2 710 709 712
102 2 711 709 712
103 2 610 613 614
104 2 610 613 615
105 3 610 613 616
106 1 614 613 615
107 2 614 613 616
108 2 615 613 616
109 2 712 715 716
110 2 712 715 717
111 3 712 715 718
112 1 716 715 717
113 2 716 715 718
114 2 717 715 718
115 2 262 265 266
116 2 262 265 267
117 3 262 265 268
118 1 266 265 267
119 2 266 265 268
120 2 267 265 268
121 2 271 274 275
122 2 271 274 276
123 3 271 274 277
124 1 275 274 276
125 2 275 274 277
126 2 276 274 277
127 2 1012 1015 1016
128 2 1012 1015 1017
129 3 1012 1015 1018
130 1 1016 1015 1017
131 2 1016 1015 1018
132 2 1017 1015 1018
133 2 1051 1054 1055
134 2 1051 1054 1056
135 3 1051 1054 1057
136 1 1055 1054 1056
137 2 1055 1054 1057
138 2 1056 1054 1057
139 1 602 601 603
140 2 602 601 604
141 2 603 601 604
142 2 607 610 611
143 2 607 610 612
144 3 607 610 613
145 1 611 610 612
146 2 611 610 613
147 2 612 610 613
148 2 832 835 836
149 2 832 835 837
150 3 832 835 838
151 1 836 835 837
152 2 836 835 838
153 2 837 835 838
154 2 700 703 704
155 2 700 703 705
156 3 700 703 706
157 1 704 703 705
158 2 704 703 706
159 2 705 703 706
160 2 268 271 272
161 2 268 271 273
162 3 268 271 274
163 1 272 271 273
164 2 272 271 274
165 2 273 271 274
166 2 265 268 269
167 2 265 268 270
168 3 265 268 271
169 1 269 268 270
170 2 269 268 271
171 2 270 268 271
172 2 835 838 839
173 2 835 838 840
174 1 839 838 840
175 2 1060 1063 1064
176 2 1060 1063 1065
177 3 1060 1063 1066
178 1 1064 1063 1065
179 2 1064 1063 1066
180 2 1065 1063 1066
181 2 325 328 329
182 2 325 328 330
183 3 325 328 331
184 1 329 328 330
185 2 329 328 331
186 2 330 328 331
187 2 1057 1060 1061
188 2 1057 1060 1062
189 3 1057 1060 1063
190 1 1061 1060 1062
191 2 1061 1060 1063
192 2 1062 1060 1063
193 2 1009 1012 1013
194 2 1009 1012 1014
195 3 1009 1012 1015
196 1 1013 1012 1014
197 2 1013 1012 1015
198 2 1014 1012 1015
199 2 331 334 335
200 2 331 334 336
201 3 331 334 337
202 1 335 334 336
203 2 335 334 337
204 2 336 334 337
205 2 97 100 101
206 2 97 100 102
207 3 97 100 103
208 1 101 100 102
209 2 101 100 103
210 2 102 100 103
211 2 295 298 299
212 2 295 298 300
213 1 299 298 300
214 2 847 850 851
215 2 847 850 852
216 3 847 850 853
217 1 851 850 852
218 2 851 850 853
219 2 852 850 853
220 2 94 97 98
221 2 94 97 99
222 3 94 97 100
223 1 98 97 99
224 2 98 97 100
225 2 99 97 100
226 2 850 853 854
227 2 850 853 855
228 3 850 853 856
229 1 854 853 855
230 2 854 853 856
231 2 855 853 856
232 2 1156 1159 1160
233 2 1156 1159 1161
234 3 1156 1159 1162
235 1 1160 1159 1161
236 2 1160 1159 1162
237 2 1161 1159 1162
238 2 292 295 296
239 2 292 295 297
240 3 292 295 298
241 1 296 295 297
242 2 296 295 298
243 2 297 295 298
244 2 1147 1150 1151
245 2 1147 1150 1152
246 3 1147 1150 1153
247 1 1151 1150 1152
248 2 1151 1150 1153
249 2 1152 1150 1153
250 2 283 286 287
251 2 283 286 288
252 3 283 286 289
253 1 287 286 288
254 2 287 286 289
255 2 288 286 289
256 2 1144 1147 1148
257 2 1144 1147 1149
258 3 1144 1147 1150
259 1 1148 1147 1149
260 2 1148 1147 1150
261 2 1149 1147 1150
262 2 79 82 83
263 2 79 82 84
264 3 79 82 85
265 1 83 82 84
266 2 83 82 85
267 2 84 82 85
268 2 85 88 89
269 2 85 88 90
270 3 85 88 91
271 1 89 88 90
272 2 89 88 91
273 2 90 88 91
274 2 289 292 293
275 2 289 292 294
276 3 289 292 295
277 1 293 292 294
278 2 293 292 295
279 2 294 292 295
280 2 349 352 353
281 2 349 352 354
282 3 349 352 355
283 1 353 352 354
284 2 353 352 355
285 2 354 352 355
286 1 842 841 843
287 2 842 841 844
288 2 843 841 844
289 2 346 349 350
290 2 346 349 351
291 3 346 349 352
292 1 350 349 351
293 2 350 349 352
294 2 351 349 352
295 2 91 94 95
296 2 91 94 96
297 3 91 94 97
298 1 95 94 96
299 2 95 94 97
300 2 96 94 97
301 2 1153 1156 1157
302 2 1153 1156 1158
303 3 1153 1156 1159
304 1 1157 1156 1158
305 2 1157 1156 1159
306 2 1158 1156 1159
307 2 151 154 155
308 2 151 154 156
309 3 151 154 157
310 1 155 154 156
311 2 155 154 157
312 2 156 154 157
313 2 286 289 290
314 2 286 289 291
315 3 286 289 292
316 1 290 289 291
317 2 290 289 292
318 2 291 289 292
319 2 340 343 344
320 2 340 343 345
321 3 340 343 346
322 1 344 343 345
323 2 344 343 346
324 2 345 343 346
325 2 157 160 161
326 2 157 160 162
327 3 157 160 163
328 1 161 160 162
329 2 161 160 163
330 2 162 160 163
331 2 82 85 86
332 2 82 85 87
333 3 82 85 88
334 1 86 85 87
335 2 86 85 88
336 2 87 85 88
337 2 844 847 848
338 2 844 847 849
339 3 844 847 850
340 1 848 847 849
341 2 848 847 850
342 2 849 847 850
343 2 841 844 845
344 2 841 844 846
345 3 841 844 847
346 1 845 844 846
347 2 845 844 847
348 2 846 844 847
349 2 1150 1153 1154
350 2 1150 1153 1155
351 3 1150 1153 1156
352 1 1154 1153 1155
353 2 1154 1153 1156
354 2 1155 1153 1156
355 2 88 91 92
356 2 88 91 93
357 3 88 91 94
358 1 92 91 93
359 2 92 91 94
360 2 93 91 94
361 2 613 616 617
362 2 613 616 618
363 3 613 616 619
364 1 617 616 618
365 2 617 616 619
366 2 618 616 619
367 2 100 103 104
368 2 100 103 105
369 3 100 103 106
370 1 104 103 105
371 2 104 103 106
372 2 105 103 106
373 2 619 622 623
374 2 619 622 624
375 3 619 622 625
376 1 623 622 624
377 2 623 622 625
378 2 624 622 625
379 2 154 157 158
380 2 154 157 159
381 3 154 157 160
382 1 158 157 159
383 2 158 157 160
384 2 159 157 160
385 2 76 79 80
386 2 76 79 81
387 3 76 79 82
388 1 80 79 81
389 2 80 79 82
390 2 81 79 82
391 2 280 283 284
392 2 280 283 285
393 3 280 283 286
394 1 284 283 285
395 2 284 283 286
396 2 285 283 286
397 2 616 619 620
398 2 616 619 621
399 3 616 619 622
400 1 620 619 621
401 2 620 619 622
402 2 621 619 622
403 2 103 106 107
404 2 103 106 108
405 3 103 106 109
406 1 107 106 108
407 2 107 106 109
408 2 108 106 109
409 2 352 355 356
410 2 352 355 357
411 3 352 355 358
412 1 356 355 357
413 2 356 355 358
414 2 357 355 358
415 2 1129 1132 1133
416 2 1129 1132 1134
417 3 1129 1132 1135
418 1 1133 1132 1134
419 2 1133 1132 1135
420 2 1134 1132 1135
421 2 43 46 47
422 2 43 46 48
423 3 43 46 49
424 1 47 46 48
425 2 47 46 49
426 2 48 46 49
427 2 34 37 38
428 2 34 37 39
429 3 34 37 40
430 1 38 37 39
431 2 38 37 40
432 2 39 37 40
433 2 1126 1129 1130
434 2 1126 1129 1131
435 3 1126 1129 1132
436 1 1130 1129 1131
437 2 1130 1129 1132
438 2 1131 1129 1132
439 2 1132 1135 1136
440 2 1132 1135 1137
441 3 1132 1135 1138
442 1 1136 1135 1137
443 2 1136 1135 1138
444 2 1137 1135 1138
445 2 37 40 41
446 2 37 40 42
447 3 37 40 43
448 1 41 40 42
449 2 41 40 43
450 2 42 40 43
451 2 73 76 77
452 2 73 76 78
453 3 73 76 79
454 1 77 76 78
455 2 77 76 79
456 2 78 76 79
457 2 52 55 56
458 2 52 55 57
459 3 52 55 58
460 1 56 55 57
461 2 56 55 58
462 2 57 55 58
463 2 31 34 35
464 2 31 34 36
465 3 31 34 37
466 1 35 34 36
467 2 35 34 37
468 2 36 34 37
469 2 1072 1075 1076
470 2 1072 1075 1077
471 3 1072 1075 1078
472 1 1076 1075 1077
473 2 1076 1075 1078
474 2 1077 1075 1078
475 2 46 49 50
476 2 46 49 51
477 3 46 49 52
478 1 50 49 51
479 2 50 49 52
480 2 51 49 52
481 2 1063 1066 1067
482 2 1063 1066 1068
483 3 1063 1066 1069
484 1 1067 1066 1068
485 2 1067 1066 1069
486 2 1068 1066 1069
487 2 1135 1138 1139
488 2 1135 1138 1140
489 1 1139 1138 1140
490 2 904 907 908
491 2 904 907 909
492 3 904 907 910
493 1 908 907 909
494 2 908 907 910
495 2 909 907 910
496 2 49 52 53
497 2 49 52 54
498 3 49 52 55
499 1 53 52 54
500 2 53 52 55
501 2 54 52 55
502 2 901 904 905
503 2 901 904 906
504 3 901 904 907
505 1 905 904 906
506 2 905 904 907
507 2 906 904 907
508 2 40 43 44
509 2 40 43 45
510 3 40 43 46
511 1 44 43 45
512 2 44 43 46
513 2 45 43 46
514 2 907 910 911
515 2 907 910 912
516 3 907 910 913
517 1 911 910 912
518 2 911 910 913
519 2 912 910 913
520 2 55 58 59
521 2 55 58 60
522 1 59 58 60
523 2 910 913 914
524 2 910 913 915
525 3 910 913 916
526 1 914 913 915
527 2 914 913 916
528 2 915 913 916
529 2 475 478 479
530 2 475 478 480
531 1 479 478 480
532 2 355 358 359
533 2 355 358 360
534 1 359 358 360
535 2 1069 1072 1073
536 2 1069 1072 1074
537 3 1069 1072 1075
538 1 1073 1072 1074
539 2 1073 1072 1075
540 2 1074 1072 1075
541 1 902 901 903
542 2 902 901 904
543 2 903 901 904
544 2 1066 1069 1070
545 2 1066 1069 1071
546 3 1066 1069 1072
547 1 1070 1069 1071
548 2 1070 1069 1072
549 2 1071 1069 1072
550 2 1123 1126 1127
551 2 1123 1126 1128
552 3 1123 1126 1129
553 1 1127 1126 1128
554 2 1127 1126 1129
555 2 1128 1126 1129
556 2 820 823 824
557 2 820 823 825
558 3 820 823 826
559 1 824 823 825
560 2 824 823 826
561 2 825 823 826
562 2 1099 1102 1103
563 2 1099 1102 1104
564 3 1099 1102 1105
565 1 1103 1102 1104
566 2 1103 1102 1105
567 2 1104 1102 1105
568 2 826 829 830
569 2 826 829 831
570 3 826 829 832
571 1 830 829 831
572 2 830 829 832
573 2 831 829 832
574 2 1111 1114 1115
575 2 1111 1114 1116
576 3 1111 1114 1117
577 1 1115 1114 1116
578 2 1115 1114 1117
579 2 1116 1114 1117
580 2 1090 1093 1094
581 2 1090 1093 1095
582 3 1090 1093 1096
583 1 1094 1093 1095
584 2 1094 1093 1096
585 2 1095 1093 1096
586 2 829 832 833
587 2 829 832 834
588 3 829 832 835
589 1 833 832 834
590 2 833 832 835
591 2 834 832 835
592 2 697 700 701
593 2 697 700 702
594 3 697 700 703
595 1 701 700 702
596 2 701 700 703
597 2 702 700 703
598 2 1102 1105 1106
599 2 1102 1105 1107
600 3 1102 1105 1108
601 1 1106 1105 1107
602 2 1106 1105 1108
603 2 1107 1105 1108
604 2 172 175 176
605 2 172 175 177
606 3 172 175 178
607 1 176 175 177
608 2 176 175 178
609 2 177 175 178
610 2 1096 1099 1100
611 2 1096 1099 1101
612 3 1096 1099 1102
613 1 1100 1099 1101
614 2 1100 1099 1102
615 2 1101 1099 1102
616 2 814 817 818
617 2 814 817 819
618 3 814 817 820
619 1 818 817 819
620 2 818 817 820
621 2 819 817 820
622 2 817 820 821
623 2 817 820 822
624 3 817 820 823
625 1 821 820 822
626 2 821 820 823
627 2 822 820 823
628 2 694 697 698
629 2 694 697 699
630 3 694 697 700
631 1 698 697 699
632 2 698 697 700
633 2 699 697 700
634 2 169 172 173
635 2 169 172 174
636 3 169 172 175
637 1 173 172 174
638 2 173 172 175
639 2 174 172 175
640 2 811 814 815
641 2 811 814 816
642 3 811 814 817
643 1 815 814 816
644 2 815 814 817
645 2 816 814 817
646 2 166 169 170
647 2 166 169 171
648 3 166 169 172
649 1 170 169 171
650 2 170 169 172
651 2 171 169 172
652 2 823 826 827
653 2 823 826 828
654 3 823 826 829
655 1 827 826 828
656 2 827 826 829
657 2 828 826 829
658 2 175 178 179
659 2 175 178 180
660 1 179 178 180
661 2 235 238 239
662 2 235 238 240
663 1 239 238 240
664 2 1093 1096 1097
665 2 1093 1096 1098
666 3 1093 1096 1099
667 1 1097 1096 1098
668 2 1097 1096 1099
669 2 1098 1096 1099
670 2 1108 1111 1112
671 2 1108 1111 1113
672 3 1108 1111 1114
673 1 1112 1111 1113
674 2 1112 1111 1114
675 2 1113 1111 1114
676 2 688 691 692
677 2 688 691 693
678 3 688 691 694
679 1 692 691 693
680 2 692 691 694
681 2 693 691 694
682 2 1105 1108 1109
683 2 1105 1108 1110
684 3 1105 1108 1111
685 1 1109 1108 1110
686 2 1109 1108 1111
687 2 1110 1108 1111
688 2 691 694 695
689 2 691 694 696
690 3 691 694 697
691 1 695 694 696
692 2 695 694 697
693 2 696 694 697
694 2 1015 1018 1019
695 2 1015 1018 1020
696 1 1019 1018 1020
697 2 253 256 257
698 2 253 256 258
699 3 253 256 259
700 1 257 256 258
701 2 257 256 259
702 2 258 256 259
703 2 775 778 779
704 2 775 778 780
705 1 779 778 780
706 2 892 895 896
707 2 892 895 897
708 3 892 895 898
709 1 896 895 897
710 2 896 895 898
711 2 897 895 898
712 2 1087 1090 1091
713 2 1087 1090 1092
714 3 1087 1090 1093
715 1 1091 1090 1092
716 2 1091 1090 1093
717 2 1092 1090 1093
718 2 676 679 680
719 2 676 679 681
720 3 676 679 682
721 1 680 679 681
722 2 680 679 682
723 2 681 679 682
724 2 685 688 689
725 2 685 688 690
726 3 685 688 691
727 1 689 688 690
728 2 689 688 691
729 2 690 688 691
730 2 1084 1087 1088
731 2 1084 1087 1089
732 3 1084 1087 1090
733 1 1088 1087 1089
734 2 1088 1087 1090
735 2 1089 1087 1090
736 2 868 871 872
737 2 868 871 873
738 3 868 871 874
739 1 872 871 873
740 2 872 871 874
741 2 873 871 874
742 2 889 892 893
743 2 889 892 894
744 3 889 892 895
745 1 893 892 894
746 2 893 892 895
747 2 894 892 895
748 2 571 574 575
749 2 571 574 576
750 3 571 574 577
751 1 575 574 576
752 2 575 574 577
753 2 576 574 577
754 2 337 340 341
755 2 337 340 342
756 3 337 340 343
757 1 341 340 342
758 2 341 340 343
759 2 342 340 343
760 2 1081 1084 1085
761 2 1081 1084 1086
762 3 1081 1084 1087
763 1 1085 1084 1086
764 2 1085 1084 1087
765 2 1086 1084 1087
766 2 862 865 866
767 2 862 865 867
768 3 862 865 868
769 1 866 865 867
770 2 866 865 868
771 2 867 865 868
772 2 886 889 890
773 2 886 889 891
774 3 886 889 892
775 1 890 889 891
776 2 890 889 892
777 2 891 889 892
778 2 856 859 860
779 2 856 859 861
780 3 856 859 862
781 1 860 859 861
782 2 860 859 862
783 2 861 859 862
784 2 880 883 884
785 2 880 883 885
786 3 880 883 886
787 1 884 883 885
788 2 884 883 886
789 2 885 883 886
790 2 160 163 164
791 2 160 163 165
792 3 160 163 166
793 1 164 163 165
794 2 164 163 166
795 2 165 163 166
796 2 859 862 863
797 2 859 862 864
798 3 859 862 865
799 1 863 862 864
800 2 863 862 865
801 2 864 862 865
802 2 874 877 878
803 2 874 877 879
804 3 874 877 880
805 1 878 877 879
806 2 878 877 880
807 2 879 877 880
808 2 895 898 899
809 2 895 898 900
810 1 899 898 900
811 1 1082 1081 1083
812 2 1082 1081 1084
813 2 1083 1081 1084
814 2 865 868 869
815 2 865 868 870
816 3 865 868 871
817 1 869 868 870
818 2 869 868 871
819 2 870 868 871
820 2 334 337 338
821 2 334 337 339
822 3 334 337 340
823 1 338 337 339
824 2 338 337 340
825 2 339 337 340
826 2 877 880 881
827 2 877 880 882
828 3 877 880 883
829 1 881 880 882
830 2 881 880 883
831 2 882 880 883
832 2 883 886 887
833 2 883 886 888
834 3 883 886 889
835 1 887 886 888
836 2 887 886 889
837 2 888 886 889
838 2 853 856 857
839 2 853 856 858
840 3 853 856 859
841 1 857 856 858
842 2 857 856 859
843 2 858 856 859
844 2 682 685 686
845 2 682 685 687
846 3 682 685 688
847 1 686 685 687
848 2 686 685 688
849 2 687 685 688
850 2 163 166 167
851 2 163 166 168
852 3 163 166 169
853 1 167 166 168
854 2 167 166 169
855 2 168 166 169
856 2 679 682 683
857 2 679 682 684
858 3 679 682 685
859 1 683 682 684
860 2 683 682 685
861 2 684 682 685
862 2 574 577 578
863 2 574 577 579
864 3 574 577 580
865 1 578 577 579
866 2 578 577 580
867 2 579 577 580
868 2 871 874 875
869 2 871 874 876
870 3 871 874 877
871 1 875 874 876
872 2 875 874 877
873 2 876 874 877
874 2 577 580 581
875 2 577 580 582
876 3 577 580 583
877 1 581 580 582
878 2 581 580 583
879 2 582 580 583
880 2 343 346 347
881 2 343 346 348
882 3 343 346 349
883 1 347 346 348
884 2 347 346 349
885 2 348 346 349
886 2 241 244 245
887 2 241 244 246
888 3 241 244 247
889 1 245 244 246
890 2 245 244 247
891 2 246 244 247
892 2 1114 1117 1118
893 2 1114 1117 1119
894 3 1114 1117 1120
895 1 1118 1117 1119
896 2 1118 1117 1120
897 2 1119 1117 1120
898 2 913 916 917
899 2 913 916 918
900 3 913 916 919
901 1 917 916 918
902 2 917 916 919
903 2 918 916 919
904 2 544 547 548
905 2 544 547 549
906 3 544 547 550
907 1 548 547 549
908 2 548 547 550
909 2 549 547 550
910 2 67 70 71
911 2 67 70 72
912 3 67 70 73
913 1 71 70 72
914 2 71 70 73
915 2 72 70 73
916 2 916 919 920
917 2 916 919 921
918 3 916 919 922
919 1 920 919 921
920 2 920 919 922
921 2 921 919 922
922 2 922 925 926
923 2 922 925 927
924 3 922 925 928
925 1 926 925 927
926 2 926 925 928
927 2 927 925 928
928 2 541 544 545
929 2 541 544 546
930 3 541 544 547
931 1 545 544 546
932 2 545 544 547
933 2 546 544 547
934 2 919 922 923
935 2 919 922 924
936 3 919 922 925
937 1 923 922 924
938 2 923 922 925
939 2 924 922 925
940 2 565 568 569
941 2 565 568 570
942 3 565 568 571
943 1 569 568 570
944 2 569 568 571
945 2 570 568 571
946 2 928 931 932
947 2 928 931 933
948 3 928 931 934
949 1 932 931 933
950 2 932 931 934
951 2 933 931 934
952 2 568 571 572
953 2 568 571 573
954 3 568 571 574
955 1 572 571 573
956 2 572 571 574
957 2 573 571 574
958 2 1120 1123 1124
959 2 1120 1123 1125
960 3 1120 1123 1126
961 1 1124 1123 1125
962 2 1124 1123 1126
963 2 1125 1123 1126
964 2 106 109 110
965 2 106 109 111
966 3 106 109 112
967 1 110 109 111
968 2 110 109 112
969 2 111 109 112
970 2 547 550 551
971 2 547 550 552
972 3 547 550 553
973 1 551 550 552
974 2 551 550 553
975 2 552 550 553
976 2 70 73 74
977 2 70 73 75
978 3 70 73 76
979 1 74 73 75
980 2 74 73 76
981 2 75 73 76
982 2 1117 1120 1121
983 2 1117 1120 1122
984 3 1117 1120 1123
985 1 1121 1120 1122
986 2 1121 1120 1123
987 2 1122 1120 1123
988 2 553 556 557
989 2 553 556 558
990 3 553 556 559
991 1 557 556 558
992 2 557 556 559
993 2 558 556 559
994 2 559 562 563
995 2 559 562 564
996 3 559 562 565
997 1 563 562 564
998 2 563 562 565
999 2 564 562 565
1000 2 925 928 929
1001 2 925 928 930
1002 3 925 928 931
1003 1 929 928 930
1004 2 929 928 931
1005 2 930 928 931
1006 2 115 118 119
1007 2 115 118 120
1008 1 119 118 120
1009 2 556 559 560
1010 2 556 559 561
1011 3 556 559 562
1012 1 560 559 561
1013 2 560 559 562
1014 2 561 559 562
1015 2 247 250 251
1016 2 247 250 252
1017 3 247 250 253
1018 1 251 250 252
1019 2 251 250 253
1020 2 252 250 253
1021 2 244 247 248
1022 2 244 247 249
1023 3 244 247 250
1024 1 248 247 249
1025 2 248 247 250
1026 2 249 247 250
1027 2 64 67 68
1028 2 64 67 69
1029 3 64 67 70
1030 1 68 67 69
1031 2 68 67 70
1032 2 69 67 70
1033 2 562 565 566
1034 2 562 565 567
1035 3 562 565 568
1036 1 566 565 567
1037 2 566 565 568
1038 2 567 565 568
1039 2 109 112 113
1040 2 109 112 114
1041 3 109 112 115
1042 1 113 112 114
1043 2 113 112 115
1044 2 114 112 115
1045 2 112 115 116
1046 2 112 115 117
1047 3 112 115 118
1048 1 116 115 117
1049 2 116 115 118
1050 2 117 115 118
1051 2 61 64 65
1052 2 61 64 66
1053 3 61 64 67
1054 1 65 64 66
1055 2 65 64 67
1056 2 66 64 67
1057 2 550 553 554
1058 2 550 553 555
1059 3 550 553 556
1060 1 554 553 555
1061 2 554 553 556
1062 2 555 553 556
1063 1 242 241 243
1064 2 242 241 244
1065 2 243 241 244
1066 1 62 61 63
1067 2 62 61 64
1068 2 63 61 64
1069 1 542 541 543
1070 2 542 541 544
1071 2 543 541 544
1072 2 931 934 935
1073 2 931 934 936
1074 3 931 934 937
1075 1 935 934 936
1076 2 935 934 937
1077 2 936 934 937
1078 2 949 952 953
1079 2 949 952 954
1080 3 949 952 955
1081 1 953 952 954
1082 2 953 952 955
1083 2 954 952 955
1084 2 529 532 533
1085 2 529 532 534
1086 3 529 532 535
1087 1 533 532 534
1088 2 533 532 535
1089 2 534 532 535
1090 2 736 739 740
1091 2 736 739 741
1092 3 736 739 742
1093 1 740 739 741
1094 2 740 739 742
1095 2 741 739 742
1096 2 520 523 524
1097 2 520 523 525
1098 3 520 523 526
1099 1 524 523 525
1100 2 524 523 526
1101 2 525 523 526
1102 2 721 724 725
1103 2 721 724 726
1104 3 721 724 727
1105 1 725 724 726
1106 2 725 724 727
1107 2 726 724 727
1108 2 730 733 734
1109 2 730 733 735
1110 3 730 733 736
1111 1 734 733 735
1112 2 734 733 736
1113 2 735 733 736
1114 2 994 997 998
1115 2 994 997 999
1116 3 994 997 1000
1117 1 998 997 999
1118 2 998 997 1000
1119 2 999 997 1000
1120 2 526 529 530
1121 2 526 529 531
1122 3 526 529 532
1123 1 530 529 531
1124 2 530 529 532
1125 2 531 529 532
1126 2 259 262 263
1127 2 259 262 264
1128 3 259 262 265
1129 1 263 262 264
1130 2 263 262 265
1131 2 264 262 265
1132 2 724 727 728
1133 2 724 727 729
1134 3 724 727 730
1135 1 728 727 729
1136 2 728 727 730
1137 2 729 727 730
1138 2 517 520 521
1139 2 517 520 522
1140 3 517 520 523
1141 1 521 520 522
1142 2 521 520 523
1143 2 522 520 523
1144 2 991 994 995
1145 2 991 994 996
1146 3 991 994 997
1147 1 995 994 996
1148 2 995 994 997
1149 2 996 994 997
1150 2 793 796 797
1151 2 793 796 798
1152 3 793 796 799
1153 1 797 796 798
1154 2 797 796 799
1155 2 798 796 799
1156 2 727 730 731
1157 2 727 730 732
1158 3 727 730 733
1159 1 731 730 732
1160 2 731 730 733
1161 2 732 730 733
1162 2 523 526 527
1163 2 523 526 528
1164 3 523 526 529
1165 1 527 526 528
1166 2 527 526 529
1167 2 528 526 529
1168 2 310 313 314
1169 2 310 313 315
1170 3 310 313 316
1171 1 314 313 315
1172 2 314 313 316
1173 2 315 313 316
1174 2 988 991 992
1175 2 988 991 993
1176 3 988 991 994
1177 1 992 991 993
1178 2 992 991 994
1179 2 993 991 994
1180 2 739 742 743
1181 2 739 742 744
1182 3 739 742 745
1183 1 743 742 744
1184 2 743 742 745
1185 2 744 742 745
1186 2 532 535 536
1187 2 532 535 537
1188 3 532 535 538
1189 1 536 535 537
1190 2 536 535 538
1191 2 537 535 538
1192 2 319 322 323
1193 2 319 322 324
1194 3 319 322 325
1195 1 323 322 324
1196 2 323 322 325
1197 2 324 322 325
1198 2 955 958 959
1199 2 955 958 960
1200 1 959 958 960
1201 2 733 736 737
1202 2 733 736 738
1203 3 733 736 739
1204 1 737 736 738
1205 2 737 736 739
1206 2 738 736 739
1207 1 422 421 423
1208 2 422 421 424
1209 2 423 421 424
1210 2 514 517 518
1211 2 514 517 519
1212 3 514 517 520
1213 1 518 517 519
1214 2 518 517 520
1215 2 519 517 520
1216 2 985 988 989
1217 2 985 988 990
1218 3 985 988 991
1219 1 989 988 990
1220 2 989 988 991
1221 2 990 988 991
1222 2 952 955 956
1223 2 952 955 957
1224 3 952 955 958
1225 1 956 955 957
1226 2 956 955 958
1227 2 957 955 958
1228 2 535 538 539
1229 2 535 538 540
1230 1 539 538 540
1231 2 1075 1078 1079
1232 2 1075 1078 1080
1233 1 1079 1078 1080
1234 1 722 721 723
1235 2 722 721 724
1236 2 723 721 724
1237 2 316 319 320
1238 2 316 319 321
1239 3 316 319 322
1240 1 320 319 321
1241 2 320 319 322
1242 2 321 319 322
1243 2 997 1000 1001
1244 2 997 1000 1002
1245 3 997 1000 1003
1246 1 1001 1000 1002
1247 2 1001 1000 1003
1248 2 1002 1000 1003
1249 2 313 316 317
1250 2 313 316 318
1251 3 313 316 319
1252 1 317 316 318
1253 2 317 316 319
1254 2 318 316 319
1255 2 202 205 206
1256 2 202 205 207
1257 3 202 205 208
1258 1 206 205 207
1259 2 206 205 208
1260 2 207 205 208
1261 2 190 193 194
1262 2 190 193 195
1263 3 190 193 196
1264 1 194 193 195
1265 2 194 193 196
1266 2 195 193 196
1267 2 133 136 137
1268 2 133 136 138
1269 3 133 136 139
1270 1 137 136 138
1271 2 137 136 139
1272 2 138 136 139
1273 2 505 508 509
1274 2 505 508 510
1275 3 505 508 511
1276 1 509 508 510
1277 2 509 508 511
1278 2 510 508 511
1279 2 181 184 185
1280 2 181 184 186
1281 3 181 184 187
1282 1 185 184 186
1283 2 185 184 187
1284 2 186 184 187
1285 1 782 781 783
1286 2 782 781 784
1287 2 783 781 784
1288 2 139 142 143
1289 2 139 142 144
1290 3 139 142 145
1291 1 143 142 144
1292 2 143 142 145
1293 2 144 142 145
1294 2 130 133 134
1295 2 130 133 135
1296 3 130 133 136
1297 1 134 133 135
1298 2 134 133 136
1299 2 135 133 136
1300 2 187 190 191
1301 2 187 190 192
1302 3 187 190 193
1303 1 191 190 192
1304 2 191 190 193
1305 2 192 190 193
1306 2 193 196 197
1307 2 193 196 198
1308 3 193 196 199
1309 1 197 196 198
1310 2 197 196 199
1311 2 198 196 199
1312 2 145 148 149
1313 2 145 148 150
1314 3 145 148 151
1315 1 149 148 150
1316 2 149 148 151
1317 2 150 148 151
1318 2 127 130 131
1319 2 127 130 132
1320 3 127 130 133
1321 1 131 130 132
1322 2 131 130 133
1323 2 132 130 133
1324 2 745 748 749
1325 2 745 748 750
1326 3 745 748 751
1327 1 749 748 750
1328 2 749 748 751
1329 2 750 748 751
1330 2 661 664 665
1331 2 661 664 666
1332 3 661 664 667
1333 1 665 664 666
1334 2 665 664 667
1335 2 666 664 667
1336 2 784 787 788
1337 2 784 787 789
1338 3 784 787 790
1339 1 788 787 789
1340 2 788 787 790
1341 2 789 787 790
1342 2 136 139 140
1343 2 136 139 141
1344 3 136 139 142
1345 1 140 139 141
1346 2 140 139 142
1347 2 141 139 142
1348 2 124 127 128
1349 2 124 127 129
1350 3 124 127 130
1351 1 128 127 129
1352 2 128 127 130
1353 2 129 127 130
1354 2 502 505 506
1355 2 502 505 507
1356 3 502 505 508
1357 1 506 505 507
1358 2 506 505 508
1359 2 507 505 508
1360 2 199 202 203
1361 2 199 202 204
1362 3 199 202 205
1363 1 203 202 204
1364 2 203 202 205
1365 2 204 202 205
1366 2 499 502 503
1367 2 499 502 504
1368 3 499 502 505
1369 1 503 502 504
1370 2 503 502 505
1371 2 504 502 505
1372 2 496 499 500
1373 2 496 499 501
1374 3 496 499 502
1375 1 500 499 501
1376 2 500 499 502
1377 2 501 499 502
1378 2 781 784 785
1379 2 781 784 786
1380 3 781 784 787
1381 1 785 784 786
1382 2 785 784 787
1383 2 786 784 787
1384 2 196 199 200
1385 2 196 199 201
1386 3 196 199 202
1387 1 200 199 201
1388 2 200 199 202
1389 2 201 199 202
1390 2 742 745 746
1391 2 742 745 747
1392 3 742 745 748
1393 1 746 745 747
1394 2 746 745 748
1395 2 747 745 748
1396 2 511 514 515
1397 2 511 514 516
1398 3 511 514 517
1399 1 515 514 516
1400 2 515 514 517
1401 2 516 514 517
1402 1 662 661 663
1403 2 662 661 664
1404 2 663 661 664
1405 2 508 511 512
1406 2 508 511 513
1407 3 508 511 514
1408 1 512 511 513
1409 2 512 511 514
1410 2 513 511 514
1411 2 142 145 146
1412 2 142 145 147
1413 3 142 145 148
1414 1 146 145 147
1415 2 146 145 148
1416 2 147 145 148
1417 2 787 790 791
1418 2 787 790 792
1419 3 787 790 793
1420 1 791 790 792
1421 2 791 790 793
1422 2 792 790 793
1423 2 205 208 209
1424 2 205 208 210
1425 3 205 208 211
1426 1 209 208 210
1427 2 209 208 211
1428 2 210 208 211
1429 2 148 151 152
1430 2 148 151 153
1431 3 148 151 154
1432 1 152 151 153
1433 2 152 151 154
1434 2 153 151 154
1435 2 790 793 794
1436 2 790 793 795
1437 3 790 793 796
1438 1 794 793 795
1439 2 794 793 796
1440 2 795 793 796
1441 2 1141 1144 1145
1442 2 1141 1144 1146
1443 3 1141 1144 1147
1444 1 1145 1144 1146
1445 2 1145 1144 1147
1446 2 1146 1144 1147
1447 2 421 424 425
1448 2 421 424 426
1449 3 421 424 427
1450 1 425 424 426
1451 2 425 424 427
1452 2 426 424 427
1453 2 403 406 407
1454 2 403 406 408
1455 3 403 406 409
1456 1 407 406 408
1457 2 407 406 409
1458 2 408 406 409
1459 2 304 307 308
1460 2 304 307 309
1461 3 304 307 310
1462 1 308 307 309
1463 2 308 307 310
1464 2 309 307 310
1465 2 397 400 401
1466 2 397 400 402
1467 3 397 400 403
1468 1 401 400 402
1469 2 401 400 403
1470 2 402 400 403
1471 2 1171 1174 1175
1472 2 1171 1174 1176
1473 3 1171 1174 1177
1474 1 1175 1174 1176
1475 2 1175 1174 1177
1476 2 1176 1174 1177
1477 2 433 436 437
1478 2 433 436 438
1479 3 433 436 439
1480 1 437 436 438
1481 2 437 436 439
1482 2 438 436 439
1483 2 469 472 473
1484 2 469 472 474
1485 3 469 472 475
1486 1 473 472 474
1487 2 473 472 475
1488 2 474 472 475
1489 2 487 490 491
1490 2 487 490 492
1491 3 487 490 493
1492 1 491 490 492
1493 2 491 490 493
1494 2 492 490 493
1495 2 400 403 404
1496 2 400 403 405
1497 3 400 403 406
1498 1 404 403 405
1499 2 404 403 406
1500 2 405 403 406
1501 2 466 469 470
1502 2 466 469 471
1503 3 466 469 472
1504 1 470 469 471
1505 2 470 469 472
1506 2 471 469 472
1507 2 481 484 485
1508 2 481 484 486
1509 3 481 484 487
1510 1 485 484 486
1511 2 485 484 487
1512 2 486 484 487
1513 2 484 487 488
1514 2 484 487 489
1515 3 484 487 490
1516 1 488 487 489
1517 2 488 487 490
1518 2 489 487 490
1519 2 385 388 389
1520 2 385 388 390
1521 3 385 388 391
1522 1 389 388 390
1523 2 389 388 391
1524 2 390 388 391
1525 1 482 481 483
1526 2 482 481 484
1527 2 483 481 484
1528 2 430 433 434
1529 2 430 433 435
1530 3 430 433 436
1531 1 434 433 435
1532 2 434 433 436
1533 2 435 433 436
1534 2 409 412 413
1535 2 409 412 414
1536 3 409 412 415
1537 1 413 412 414
1538 2 413 412 415
1539 2 414 412 415
1540 2 394 397 398
1541 2 394 397 399
1542 3 394 397 400
1543 1 398 397 399
1544 2 398 397 400
1545 2 399 397 400
1546 2 427 430 431
1547 2 427 430 432
1548 3 427 430 433
1549 1 431 430 432
1550 2 431 430 433
1551 2 432 430 433
1552 2 406 409 410
1553 2 406 409 411
1554 3 406 409 412
1555 1 410 409 411
1556 2 410 409 412
1557 2 411 409 412
1558 2 1003 1006 1007
1559 2 1003 1006 1008
1560 3 1003 1006 1009
1561 1 1007 1006 1008
1562 2 1007 1006 1009
1563 2 1008 1006 1009
1564 2 388 391 392
1565 2 388 391 393
1566 3 388 391 394
1567 1 392 391 393
1568 2 392 391 394
1569 2 393 391 394
1570 2 1159 1162 1163
1571 2 1159 1162 1164
1572 3 1159 1162 1165
1573 1 1163 1162 1164
1574 2 1163 1162 1165
1575 2 1164 1162 1165
1576 2 412 415 416
1577 2 412 415 417
1578 3 412 415 418
1579 1 416 415 417
1580 2 416 415 418
1581 2 417 415 418
1582 2 463 466 467
1583 2 463 466 468
1584 3 463 466 469
1585 1 467 466 468
1586 2 467 466 469
1587 2 468 466 469
1588 2 490 493 494
1589 2 490 493 495
1590 3 490 493 496
1591 1 494 493 495
1592 2 494 493 496
1593 2 495 493 496
1594 2 1000 1003 1004
1595 2 1000 1003 1005
1596 3 1000 1003 1006
1597 1 1004 1003 1005
1598 2 1004 1003 1006
1599 2 1005 1003 1006
1600 2 424 427 428
1601 2 424 427 429
1602 3 424 427 430
1603 1 428 427 429
1604 2 428 427 430
1605 2 429 427 430
1606 2 391 394 395
1607 2 391 394 396
1608 3 391 394 397
1609 1 395 394 396
1610 2 395 394 397
1611 2 396 394 397
1612 2 472 475 476
1613 2 472 475 477
1614 3 472 475 478
1615 1 476 475 477
1616 2 476 475 478
1617 2 477 475 478
1618 2 493 496 497
1619 2 493 496 498
1620 3 493 496 499
1621 1 497 496 498
1622 2 497 496 499
1623 2 498 496 499
1624 2 1162 1165 1166
1625 2 1162 1165 1167
1626 3 1162 1165 1168
1627 1 1166 1165 1167
1628 2 1166 1165 1168
1629 2 1167 1165 1168
1630 2 1165 1168 1169
1631 2 1165 1168 1170
1632 3 1165 1168 1171
1633 1 1169 1168 1170
1634 2 1169 1168 1171
1635 2 1170 1168 1171
1636 2 1168 1171 1172
1637 2 1168 1171 1173
1638 3 1168 1171 1174
1639 1 1172 1171 1173
1640 2 1172 1171 1174
1641 2 1173 1171 1174
1642 1 302 301 303
1643 2 302 301 304
1644 2 303 301 304
1645 2 655 658 659
1646 2 655 658 660
1647 1 659 658 660
1648 2 415 418 419
1649 2 415 418 420
1650 1 419 418 420
1651 2 184 187 188
1652 2 184 187 189
1653 3 184 187 190
1654 1 188 187 189
1655 2 188 187 190
1656 2 189 187 190
1657 1 182 181 183
1658 2 182 181 184
1659 2 183 181 184
1660 2 382 385 386
1661 2 382 385 387
1662 3 382 385 388
1663 1 386 385 387
1664 2 386 385 388
1665 2 387 385 388
1666 2 940 943 944
1667 2 940 943 945
1668 3 940 943 946
1669 1 944 943 945
1670 2 944 943 946
1671 2 945 943 946
1672 2 799 802 803
1673 2 799 802 804
1674 3 799 802 805
1675 1 803 802 804
1676 2 803 802 805
1677 2 804 802 805
1678 2 25 28 29
1679 2 25 28 30
1680 3 25 28 31
1681 1 29 28 30
1682 2 29 28 31
1683 2 30 28 31
1684 2 805 808 809
1685 2 805 808 810
1686 3 805 808 811
1687 1 809 808 810
1688 2 809 808 811
1689 2 810 808 811
1690 2 976 979 980
1691 2 976 979 981
1692 3 976 979 982
1693 1 980 979 981
1694 2 980 979 982
1695 2 981 979 982
1696 2 232 235 236
1697 2 232 235 237
1698 3 232 235 238
1699 1 236 235 237
1700 2 236 235 238
1701 2 237 235 238
1702 2 22 25 26
1703 2 22 25 27
1704 3 22 25 28
1705 1 26 25 27
1706 2 26 25 28
1707 2 27 25 28
1708 2 808 811 812
1709 2 808 811 813
1710 3 808 811 814
1711 1 812 811 813
1712 2 812 811 814
1713 2 813 811 814
1714 2 970 973 974
1715 2 970 973 975
1716 3 970 973 976
1717 1 974 973 975
1718 2 974 973 976
1719 2 975 973 976
1720 2 973 976 977
1721 2 973 976 978
1722 3 973 976 979
1723 1 977 976 978
1724 2 977 976 979
1725 2 978 976 979
1726 2 4 7 8
1727 2 4 7 9
1728 3 4 7 10
1729 1 8 7 9
1730 2 8 7 10
1731 2 9 7 10
1732 2 226 229 230
1733 2 226 229 231
1734 3 226 229 232
1735 1 230 229 231
1736 2 230 229 232
1737 2 231 229 232
1738 2 10 13 14
1739 2 10 13 15
1740 3 10 13 16
1741 1 14 13 15
1742 2 14 13 16
1743 2 15 13 16
1744 2 1024 1027 1028
1745 2 1024 1027 1029
1746 3 1024 1027 1030
1747 1 1028 1027 1029
1748 2 1028 1027 1030
1749 2 1029 1027 1030
1750 1 1022 1021 1023
1751 2 1022 1021 1024
1752 2 1023 1021 1024
1753 2 796 799 800
1754 2 796 799 801
1755 3 796 799 802
1756 1 800 799 801
1757 2 800 799 802
1758 2 801 799 802
1759 2 256 259 260
1760 2 256 259 261
1761 3 256 259 262
1762 1 260 259 261
1763 2 260 259 262
1764 2 261 259 262
1765 2 223 226 227
1766 2 223 226 228
1767 3 223 226 229
1768 1 227 226 228
1769 2 227 226 229
1770 2 228 226 229
1771 2 13 16 17
1772 2 13 16 18
1773 3 13 16 19
1774 1 17 16 18
1775 2 17 16 19
1776 2 18 16 19
1777 2 943 946 947
1778 2 943 946 948
1779 3 943 946 949
1780 1 947 946 948
1781 2 947 946 949
1782 2 948 946 949
1783 1 2 1 3
1784 2 2 1 4
1785 2 3 1 4
1786 2 16 19 20
1787 2 16 19 21
1788 3 16 19 22
1789 1 20 19 21
1790 2 20 19 22
1791 2 21 19 22
1792 2 7 10 11
1793 2 7 10 12
1794 3 7 10 13
1795 1 11 10 12
1796 2 11 10 13
1797 2 12 10 13
1798 2 1021 1024 1025
1799 2 1021 1024 1026
1800 3 1021 1024 1027
1801 1 1025 1024 1026
1802 2 1025 1024 1027
1803 2 1026 1024 1027
1804 2 946 949 950
1805 2 946 949 951
1806 3 946 949 952
1807 1 950 949 951
1808 2 950 949 952
1809 2 951 949 952
1810 2 214 217 218
1811 2 214 217 219
1812 3 214 217 220
1813 1 218 217 219
1814 2 218 217 220
1815 2 219 217 220
1816 2 979 982 983
1817 2 979 982 984
1818 3 979 982 985
1819 1 983 982 984
1820 2 983 982 985
1821 2 984 982 985
1822 2 220 223 224
1823 2 220 223 225
1824 3 220 223 226
1825 1 224 223 225
1826 2 224 223 226
1827 2 225 223 226
1828 2 802 805 806
1829 2 802 805 807
1830 3 802 805 808
1831 1 806 805 807
1832 2 806 805 808
1833 2 807 805 808
1834 2 1 4 5
1835 2 1 4 6
1836 3 1 4 7
1837 1 5 4 6
1838 2 5 4 7
1839 2 6 4 7
1840 2 1027 1030 1031
1841 2 1027 1030 1032
1842 3 1027 1030 1033
1843 1 1031 1030 1032
1844 2 1031 1030 1033
1845 2 1032 1030 1033
1846 2 967 970 971
1847 2 967 970 972
1848 3 967 970 973
1849 1 971 970 972
1850 2 971 970 973
1851 2 972 970 973
1852 2 19 22 23
1853 2 19 22 24
1854 3 19 22 25
1855 1 23 22 24
1856 2 23 22 25
1857 2 24 22 25
1858 2 211 214 215
1859 2 211 214 216
1860 3 211 214 217
1861 1 215 214 216
1862 2 215 214 217
1863 2 216 214 217
1864 2 964 967 968
1865 2 964 967 969
1866 3 964 967 970
1867 1 968 967 969
1868 2 968 967 970
1869 2 969 967 970
1870 2 937 940 941
1871 2 937 940 942
1872 3 937 940 943
1873 1 941 940 942
1874 2 941 940 943
1875 2 942 940 943
1876 2 1030 1033 1034
1877 2 1030 1033 1035
1878 3 1030 1033 1036
1879 1 1034 1033 1035
1880 2 1034 1033 1036
1881 2 1035 1033 1036
1882 2 1033 1036 1037
1883 2 1033 1036 1038
1884 3 1033 1036 1039
1885 1 1037 1036 1038
1886 2 1037 1036 1039
1887 2 1038 1036 1039
1888 2 934 937 938
1889 2 934 937 939
1890 3 934 937 940
1891 1 938 937 939
1892 2 938 937 940
1893 2 939 937 940
1894 2 217 220 221
1895 2 217 220 222
1896 3 217 220 223
1897 1 221 220 222
1898 2 221 220 223
1899 2 222 220 223
1900 2 229 232 233
1901 2 229 232 234
1902 3 229 232 235
1903 1 233 232 234
1904 2 233 232 235
1905 2 234 232 235
1906 2 982 985 986
1907 2 982 985 987
1908 3 982 985 988
1909 1 986 985 987
1910 2 986 985 988
1911 2 987 985 988
1912 2 250 253 254
1913 2 250 253 255
1914 3 250 253 256
1915 1 254 253 255
1916 2 254 253 256
1917 2 255 253 256
1918 2 625 628 629
1919 2 625 628 630
1920 3 625 628 631
1921 1 629 628 630
1922 2 629 628 631
1923 2 630 628 631
1924 2 766 769 770
1925 2 766 769 771
1926 3 766 769 772
1927 1 770 769 771
1928 2 770 769 772
1929 2 771 769 772
1930 2 961 964 965
1931 2 961 964 966
1932 3 961 964 967
1933 1 965 964 966
1934 2 965 964 967
1935 2 966 964 967
1936 2 583 586 587
1937 2 583 586 588
1938 3 583 586 589
1939 1 587 586 588
1940 2 587 586 589
1941 2 588 586 589
1942 2 667 670 671
1943 2 667 670 672
1944 3 667 670 673
1945 1 671 670 672
1946 2 671 670 673
1947 2 672 670 673
1948 2 748 751 752
1949 2 748 751 753
1950 3 748 751 754
1951 1 752 751 753
1952 2 752 751 754
1953 2 753 751 754
1954 2 580 583 584
1955 2 580 583 585
1956 3 580 583 586
1957 1 584 583 585
1958 2 584 583 586
1959 2 585 583 586
1960 2 760 763 764
1961 2 760 763 765
1962 3 760 763 766
1963 1 764 763 765
1964 2 764 763 766
1965 2 765 763 766
1966 1 962 961 963
1967 2 962 961 964
1968 2 963 961 964
1969 2 754 757 758
1970 2 754 757 759
1971 3 754 757 760
1972 1 758 757 759
1973 2 758 757 760
1974 2 759 757 760
1975 2 586 589 590
1976 2 586 589 591
1977 3 586 589 592
1978 1 590 589 591
1979 2 590 589 592
1980 2 591 589 592
1981 2 763 766 767
1982 2 763 766 768
1983 3 763 766 769
1984 1 767 766 768
1985 2 767 766 769
1986 2 768 766 769
1987 2 757 760 761
1988 2 757 760 762
1989 3 757 760 763
1990 1 761 760 762
1991 2 761 760 763
1992 2 762 760 763
1993 2 631 634 635
1994 2 631 634 636
1995 3 631 634 637
1996 1 635 634 636
1997 2 635 634 637
1998 2 636 634 637
1999 2 208 211 212
2000 2 208 211 213
2001 3 208 211 214
2002 1 212 211 213
2003 2 212 211 214
2004 2 213 211 214
2005 2 640 643 644
2006 2 640 643 645
2007 3 640 643 646
2008 1 644 643 645
2009 2 644 643 646
2010 2 645 643 646
2011 2 673 676 677
2012 2 673 676 678
2013 3 673 676 679
2014 1 677 676 678
2015 2 677 676 679
2016 2 678 676 679
2017 2 670 673 674
2018 2 670 673 675
2019 3 670 673 676
2020 1 674 673 675
2021 2 674 673 676
2022 2 675 673 676
2023 2 637 640 641
2024 2 637 640 642
2025 3 637 640 643
2026 1 641 640 642
2027 2 641 640 643
2028 2 642 640 643
2029 2 592 595 596
2030 2 592 595 597
2031 3 592 595 598
2032 1 596 595 597
2033 2 596 595 598
2034 2 597 595 598
2035 2 628 631 632
2036 2 628 631 633
2037 3 628 631 634
2038 1 632 631 633
2039 2 632 631 634
2040 2 633 631 634
2041 2 634 637 638
2042 2 634 637 639
2043 3 634 637 640
2044 1 638 637 639
2045 2 638 637 640
2046 2 639 637 640
2047 2 595 598 599
2048 2 595 598 600
2049 1 599 598 600
2050 2 751 754 755
2051 2 751 754 756
2052 3 751 754 757
2053 1 755 754 756
2054 2 755 754 757
2055 2 756 754 757
2056 2 622 625 626
2057 2 622 625 627
2058 3 622 625 628
2059 1 626 625 627
2060 2 626 625 628
2061 2 627 625 628
2062 2 769 772 773
2063 2 769 772 774
2064 3 769 772 775
2065 1 773 772 774
2066 2 773 772 775
2067 2 774 772 775
2068 2 664 667 668
2069 2 664 667 669
2070 3 664 667 670
2071 1 668 667 669
2072 2 668 667 670
2073 2 669 667 670
2074 2 589 592 593
2075 2 589 592 594
2076 3 589 592 595
2077 1 593 592 594
2078 2 593 592 595
2079 2 594 592 595
2080 2 121 124 125
2081 2 121 124 126
2082 3 121 124 127
2083 1 125 124 126
2084 2 125 124 127
2085 2 126 124 127
2086 1 122 121 123
2087 2 122 121 124
2088 2 123 121 124
2089 2 442 445 446
2090 2 442 445 447
2091 3 442 445 448
2092 1 446 445 447
2093 2 446 445 448
2094 2 447 445 448
2095 2 772 775 776
2096 2 772 775 777
2097 3 772 775 778
2098 1 776 775 777
2099 2 776 775 778
2100 2 777 775 778
2101 2 436 439 440
2102 2 436 439 441
2103 3 436 439 442
2104 1 440 439 441
2105 2 440 439 442
2106 2 441 439 442
2107 2 652 655 656
2108 2 652 655 657
2109 3 652 655 658
2110 1 656 655 657
2111 2 656 655 658
2112 2 657 655 658
2113 2 307 310 311
2114 2 307 310 312
2115 3 307 310 313
2116 1 311 310 312
2117 2 311 310 313
2118 2 312 310 313
2119 2 301 304 305
2120 2 301 304 306
2121 3 301 304 307
2122 1 305 304 306
2123 2 305 304 307
2124 2 306 304 307
2125 2 439 442 443
2126 2 439 442 444
2127 3 439 442 445
2128 1 443 442 444
2129 2 443 442 445
2130 2 444 442 445
2131 2 376 379 380
2132 2 376 379 381
2133 3 376 379 382
2134 1 380 379 381
2135 2 380 379 382
2136 2 381 379 382
2137 2 457 460 461
2138 2 457 460 462
2139 3 457 460 463
2140 1 461 460 462
2141 2 461 460 463
2142 2 462 460 463
2143 2 364 367 368
2144 2 364 367 369
2145 3 364 367 370
2146 1 368 367 369
2147 2 368 367 370
2148 2 369 367 370
2149 2 1192 1195 1196
2150 2 1192 1195 1197
2151 3 1192 1195 1198
2152 1 1196 1195 1197
2153 2 1196 1195 1198
2154 2 1197 1195 1198
2155 2 454 457 458
2156 2 454 457 459
2157 3 454 457 460
2158 1 458 457 459
2159 2 458 457 460
2160 2 459 457 460
2161 2 1189 1192 1193
2162 2 1189 1192 1194
2163 3 1189 1192 1195
2164 1 1193 1192 1194
2165 2 1193 1192 1195
2166 2 1194 1192 1195
2167 2 373 376 377
2168 2 373 376 378
2169 3 373 376 379
2170 1 377 376 378
2171 2 377 376 379
2172 2 378 376 379
2173 2 445 448 449
2174 2 445 448 450
2175 3 445 448 451
2176 1 449 448 450
2177 2 449 448 451
2178 2 450 448 451
2179 2 379 382 383
2180 2 379 382 384
2181 3 379 382 385
2182 1 383 382 384
2183 2 383 382 385
2184 2 384 382 385
2185 2 1183 1186 1187
2186 2 1183 1186 1188
2187 3 1183 1186 1189
2188 1 1187 1186 1188
2189 2 1187 1186 1189
2190 2 1188 1186 1189
2191 2 367 370 371
2192 2 367 370 372
2193 3 367 370 373
2194 1 371 370 372
2195 2 371 370 373
2196 2 372 370 373
2197 2 451 454 455
2198 2 451 454 456
2199 3 451 454 457
2200 1 455 454 456
2201 2 455 454 457
2202 2 456 454 457
2203 2 448 451 452
2204 2 448 451 453
2205 3 448 451 454
2206 1 452 451 453
2207 2 452 451 454
2208 2 453 451 454
2209 2 1177 1180 1181
2210 2 1177 1180 1182
2211 3 1177 1180 1183
2212 1 1181 1180 1182
2213 2 1181 1180 1183
2214 2 1182 1180 1183
2215 2 1180 1183 1184
2216 2 1180 1183 1185
2217 3 1180 1183 1186
2218 1 1184 1183 1185
2219 2 1184 1183 1186
2220 2 1185 1183 1186
2221 2 1195 1198 1199
2222 2 1195 1198 1200
2223 1 1199 1198 1200
2224 2 1186 1189 1190
2225 2 1186 1189 1191
2226 3 1186 1189 1192
2227 1 1190 1189 1191
2228 2 1190 1189 1192
2229 2 1191 1189 1192
2230 2 370 373 374
2231 2 370 373 375
2232 3 370 373 376
2233 1 374 373 375
2234 2 374 373 376
2235 2 375 373 376
2236 2 361 364 365
2237 2 361 364 366
2238 3 361 364 367
2239 1 365 364 366
2240 2 365 364 367
2241 2 366 364 367
2242 2 460 463 464
2243 2 460 463 465
2244 3 460 463 466
2245 1 464 463 465
2246 2 464 463 466
2247 2 465 463 466
2248 2 1174 1177 1178
2249 2 1174 1177 1179
2250 3 1174 1177 1180
2251 1 1178 1177 1179
2252 2 1178 1177 1180
2253 2 1179 1177 1180
2254 2 649 652 653
2255 2 649 652 654
2256 3 649 652 655
2257 1 653 652 654
2258 2 653 652 655
2259 2 654 652 655
2260 2 646 649 650
2261 2 646 649 651
2262 3 646 649 652
2263 1 650 649 651
2264 2 650 649 652
2265 2 651 649 652
2266 2 643 646 647
2267 2 643 646 648
2268 3 643 646 649
2269 1 647 646 648
2270 2 647 646 649
2271 2 648 646 649
2272 1 362 361 363
2273 2 362 361 364
2274 2 363 361 364
2275 2 28 31 32
2276 2 28 31 33
2277 3 28 31 34
2278 1 32 31 33
2279 2 32 31 34
2280 2 33 31 34

Dihedrals

1 2 328 331 334 336
2 3 328 331 334 337
3 2 328 331 334 335
4 1 332 331 334 336
5 2 332 331 334 337
6 1 332 331 334 335
7 1 333 331 334 336
8 2 333 331 334 337
9 1 333 331 334 335
10 2 1048 1051 1054 1056
11 3 1048 1051 1054 1057
12 2 1048 1051 1054 1055
13 1 1052 1051 1054 1056
14 2 1052 1051 1054 1057
15 1 1052 1051 1054 1055
16 1 1053 1051 1054 1056
17 2 1053 1051 1054 1057
18 1 1053 1051 1054 1055
19 1 281 280 283 284
20 1 281 280 283 285
21 2 281 280 283 286
22 1 282 280 283 284
23 1 282 280 283 285
24 2 282 280 283 286
25 2 277 280 283 284
26 2 277 280 283 285
27 3 277 280 283 286
28 1 713 712 715 716
29 1 713 712 715 717
30 2 713 712 715 718
31 1 714 712 715 716
32 1 714 712 715 717
33 2 714 712 715 718
34 2 709 712 715 716
35 2 709 712 715 717
36 3 709 712 715 718
37 1 1058 1057 1060 1061
38 1 1058 1057 1060 1062
39 2 1058 1057 1060 1063
40 1 1059 1057 1060 1061
41 1 1059 1057 1060 1062
42 2 1059 1057 1060 1063
43 2 1054 1057 1060 1061
44 2 1054 1057 1060 1062
45 3 1054 1057 1060 1063
46 2 1043 1042 1045 1048
47 1 1043 1042 1045 1046
48 1 1043 1042 1045 1047
49 2 1044 1042 1045 1048
50 1 1044 1042 1045 1046
51 1 1044 1042 1045 1047
52 3 1039 1042 1045 1048
53 2 1039 1042 1045 1046
54 2 1039 1042 1045 1047
55 1 1142 1141 1144 1145
56 1 1142 1141 1144 1146
57 2 1142 1141 1144 1147
58 1 1143 1141 1144 1145
59 1 1143 1141 1144 1146
60 2 1143 1141 1144 1147
61 2 274 277 280 281
62 2 274 277 280 282
63 3 274 277 280 283
64 1 278 277 280 281
65 1 278 277 280 282
66 2 278 277 280 283
67 1 279 277 280 281
68 1 279 277 280 282
69 2 279 277 280 283
70 1 608 607 610 611
71 1 608 607 610 612
72 2 608 607 610 613
73 1 609 607 610 611
74 1 609 607 610 612
75 2 609 607 610 613
76 2 604 607 610 611
77 2 604 607 610 612
78 3 604 607 610 613
79 1 1040 1039 1042 1043
80 1 1040 1039 1042 1044
81 2 1040 1039 1042 1045
82 1 1041 1039 1042 1043
83 1 1041 1039 1042 1044
84 2 1041 1039 1042 1045
85 2 1036 1039 1042 1043
86 2 1036 1039 1042 1044
87 3 1036 1039 1042 1045
88 2 322 325 328 329
89 2 322 325 328 330
90 3 322 325 328 331
91 1 326 325 328 329
92 1 326 325 328 330
93 2 326 325 328 331
94 1 327 325 328 329
95 1 327 325 328 330
96 2 327 325 328 331
97 2 707 706 709 712
98 1 707 706 709 710
99 1 707 706 709 711
100 2 708 706 709 712
101 1 708 706 709 710
102 1 708 706 709 711
103 3 703 706 709 712
104 2 703 706 709 710
105 2 703 706 709 711
106 2 601 604 607 608
107 2 601 604 607 609
108 3 601 604 607 610
109 1 605 604 607 608
110 1 605 604 607 609
111 2 605 604 607 610
112 1 606 604 607 608
113 1 606 604 607 609
114 2 606 604 607 610
115 2 1042 1045 1048 1049
116 2 1042 1045 1048 1050
117 3 1042 1045 1048 1051
118 1 1046 1045 1048 1049
119 1 1046 1045 1048 1050
120 2 1046 1045 1048 1051
121 1 1047 1045 1048 1049
122 1 1047 1045 1048 1050
123 2 1047 1045 1048 1051
124 1 1049 1048 1051 1052
125 1 1049 1048 1051 1053
126 2 1049 1048 1051 1054
127 1 1050 1048 1051 1052
128 1 1050 1048 1051 1053
129 2 1050 1048 1051 1054
130 2 1045 1048 1051 1052
131 2 1045 1048 1051 1053
132 3 1045 1048 1051 1054
133 1 1010 1009 1012 1013
134 1 1010 1009 1012 1014
135 2 1010 1009 1012 1015
136 1 1011 1009 1012 1013
137 1 1011 1009 1012 1014
138 2 1011 1009 1012 1015
139 2 1006 1009 1012 1013
140 2 1006 1009 1012 1014
141 3 1006 1009 1012 1015
142 2 706 709 712 713
143 2 706 709 712 714
144 3 706 709 712 715
145 1 710 709 712 713
146 1 710 709 712 714
147 2 710 709 712 715
148 1 711 709 712 713
149 1 711 709 712 714
150 2 711 709 712 715
151 2 610 613 616 617
152 2 610 613 616 618
153 3 610 613 616 619
154 1 614 613 616 617
155 1 614 613 616 618
156 2 614 613 616 619
157 1 615 613 616 617
158 1 615 613 616 618
159 2 615 613 616 619
160 2 712 715 718 720
161 2 712 715 718 719
162 1 716 715 718 720
163 1 716 715 718 719
164 1 717 715 718 720
165 1 717 715 718 719
166 1 266 265 268 269
167 1 266 265 268 270
168 2 266 265 268 271
169 1 267 265 268 269
170 1 267 265 268 270
171 2 267 265 268 271
172 2 262 265 268 269
173 2 262 265 268 270
174 3 262 265 268 271
175 2 275 274 277 280
176 1 275 274 277 278
177 1 275 274 277 279
178 2 276 274 277 280
179 1 276 274 277 278
180 1 276 274 277 279
181 3 271 274 277 280
182 2 271 274 277 278
183 2 271 274 277 279
184 1 1016 1015 1018 1019
185 1 1016 1015 1018 1020
186 1 1017 1015 1018 1019
187 1 1017 1015 1018 1020
188 2 1012 1015 1018 1019
189 2 1012 1015 1018 1020
190 1 1056 1054 1057 1058
191 1 1056 1054 1057 1059
192 2 1056 1054 1057 1060
193 2 1051 1054 1057 1058
194 2 1051 1054 1057 1059
195 3 1051 1054 1057 1060
196 1 1055 1054 1057 1058
197 1 1055 1054 1057 1059
198 2 1055 1054 1057 1060
199 1 602 601 604 605
200 1 602 601 604 606
201 2 602 601 604 607
202 1 603 601 604 605
203 1 603 601 604 606
204 2 603 601 604 607
205 2 611 610 613 616
206 1 611 610 613 614
207 1 611 610 613 615
208 2 612 610 613 616
209 1 612 610 613 614
210 1 612 610 613 615
211 3 607 610 613 616
212 2 607 610 613 614
213 2 607 610 613 615
214 2 832 835 838 840
215 2 832 835 838 839
216 1 836 835 838 840
217 1 836 835 838 839
218 1 837 835 838 840
219 1 837 835 838 839
220 1 704 703 706 707
221 1 704 703 706 708
222 2 704 703 706 709
223 1 705 703 706 707
224 1 705 703 706 708
225 2 705 703 706 709
226 2 700 703 706 707
227 2 700 703 706 708
228 3 700 703 706 709
229 1 272 271 274 275
230 1 272 271 274 276
231 2 272 271 274 277
232 1 273 271 274 275
233 1 273 271 274 276
234 2 273 271 274 277
235 2 268 271 274 275
236 2 268 271 274 276
237 3 268 271 274 277
238 2 265 268 271 272
239 2 265 268 271 273
240 3 265 268 271 274
241 1 269 268 271 272
242 1 269 268 271 273
243 2 269 268 271 274
244 1 270 268 271 272
245 1 270 268 271 273
246 2 270 268 271 274
247 1 1064 1063 1066 1067
248 1 1064 1063 1066 1068
249 2 1064 1063 1066 1069
250 1 1065 1063 1066 1067
251 1 1065 1063 1066 1068
252 2 1065 1063 1066 1069
253 2 1060 1063 1066 1067
254 2 1060 1063 1066 1068
255 3 1060 1063 1066 1069
256 1 329 328 331 332
257 1 329 328 331 333
258 2 329 328 331 334
259 1 330 328 331 332
260 1 330 328 331 333
261 2 330 328 331 334
262 2 325 328 331 332
263 2 325 328 331 333
264 3 325 328 331 334
265 2 1057 1060 1063 1064
266 2 1057 1060 1063 1065
267 3 1057 1060 1063 1066
268 1 1061 1060 1063 1064
269 1 1061 1060 1063 1065
270 2 1061 1060 1063 1066
271 1 1062 1060 1063 1064
272 1 1062 1060 1063 1065
273 2 1062 1060 1063 1066
274 2 1009 1012 1015 1016
275 2 1009 1012 1015 1017
276 3 1009 1012 1015 1018
277 1 1013 1012 1015 1016
278 1 1013 1012 1015 1017
279 2 1013 1012 1015 1018
280 1 1014 1012 1015 1016
281 1 1014 1012 1015 1017
282 2 1014 1012 1015 1018
283 1 336 334 337 338
284 1 336 334 337 339
285 2 336 334 337 340
286 2 331 334 337 338
287 2 331 334 337 339
288 3 331 334 337 340
289 1 335 334 337 338
290 1 335 334 337 339
291 2 335 334 337 340
292 2 97 100 103 104
293 2 97 100 103 105
294 3 97 100 103 106
295 1 101 100 103 104
296 1 101 100 103 105
297 2 101 100 103 106
298 1 102 100 103 104
299 1 102 100 103 105
300 2 102 100 103 106
301 2 851 850 853 856
302 1 851 850 853 854
303 1 851 850 853 855
304 2 852 850 853 856
305 1 852 850 853 854
306 1 852 850 853 855
307 3 847 850 853 856
308 2 847 850 853 854
309 2 847 850 853 855
310 1 98 97 100 101
311 1 98 97 100 102
312 2 98 97 100 103
313 1 99 97 100 101
314 1 99 97 100 102
315 2 99 97 100 103
316 2 94 97 100 101
317 2 94 97 100 102
318 3 94 97 100 103
319 2 850 853 856 857
320 2 850 853 856 858
321 3 850 853 856 859
322 1 854 853 856 857
323 1 854 853 856 858
324 2 854 853 856 859
325 1 855 853 856 857
326 1 855 853 856 858
327 2 855 853 856 859
328 1 1160 1159 1162 1163
329 1 1160 1159 1162 1164
330 2 1160 1159 1162 1165
331 1 1161 1159 1162 1163
332 1 1161 1159 1162 1164
333 2 1161 1159 1162 1165
334 2 1156 1159 1162 1163
335 2 1156 1159 1162 1164
336 3 1156 1159 1162 1165
337 1 296 295 298 299
338 1 296 295 298 300
339 1 297 295 298 299
340 1 297 295 298 300
341 2 292 295 298 299
342 2 292 295 298 300
343 1 1152 1150 1153 1154
344 1 1152 1150 1153 1155
345 2 1152 1150 1153 1156
346 2 1147 1150 1153 1154
347 2 1147 1150 1153 1155
348 3 1147 1150 1153 1156
349 1 1151 1150 1153 1154
350 1 1151 1150 1153 1155
351 2 1151 1150 1153 1156
352 1 288 286 289 290
353 1 288 286 289 291
354 2 288 286 289 292
355 2 283 286 289 290
356 2 283 286 289 291
357 3 283 286 289 292
358 1 287 286 289 290
359 1 287 286 289 291
360 2 287 286 289 292
361 2 1144 1147 1150 1152
362 3 1144 1147 1150 1153
363 2 1144 1147 1150 1151
364 1 1148 1147 1150 1152
365 2 1148 1147 1150 1153
366 1 1148 1147 1150 1151
367 1 1149 1147 1150 1152
368 2 1149 1147 1150 1153
369 1 1149 1147 1150 1151
370 2 83 82 85 88
371 1 83 82 85 86
372 1 83 82 85 87
373 2 84 82 85 88
374 1 84 82 85 86
375 1 84 82 85 87
376 3 79 82 85 88
377 2 79 82 85 86
378 2 79 82 85 87
379 1 89 88 91 92
380 1 89 88 91 93
381 2 89 88 91 94
382 1 90 88 91 92
383 1 90 88 91 93
384 2 90 88 91 94
385 2 85 88 91 92
386 2 85 88 91 93
387 3 85 88 91 94
388 2 289 292 295 296
389 2 289 292 295 297
390 3 289 292 295 298
391 1 293 292 295 296
392 1 293 292 295 297
393 2 293 292 295 298
394 1 294 292 295 296
395 1 294 292 295 297
396 2 294 292 295 298
397 1 353 352 355 356
398 1 353 352 355 357
399 2 353 352 355 358
400 1 354 352 355 356
401 1 354 352 355 357
402 2 354 352 355 358
403 2 349 352 355 356
404 2 349 352 355 357
405 3 349 352 355 358
406 1 842 841 844 845
407 1 842 841 844 846
408 2 842 841 844 847
409 1 843 841 844 845
410 1 843 841 844 846
411 2 843 841 844 847
412 2 346 349 352 353
413 2 346 349 352 354
414 3 346 349 352 355
415 1 350 349 352 353
416 1 350 349 352 354
417 2 350 349 352 355
418 1 351 349 352 353
419 1 351 349 352 354
420 2 351 349 352 355
421 1 96 94 97 98
422 1 96 94 97 99
423 2 96 94 97 100
424 2 91 94 97 98
425 2 91 94 97 99
426 3 91 94 97 100
427 1 95 94 97 98
428 1 95 94 97 99
429 2 95 94 97 100
430 2 1153 1156 1159 1160
431 2 1153 1156 1159 1161
432 3 1153 1156 1159 1162
433 1 1157 1156 1159 1160
434 1 1157 1156 1159 1161
435 2 1157 1156 1159 1162
436 1 1158 1156 1159 1160
437 1 1158 1156 1159 1161
438 2 1158 1156 1159 1162
439 2 155 154 157 160
440 1 155 154 157 158
441 1 155 154 157 159
442 2 156 154 157 160
443 1 156 154 157 158
444 1 156 154 157 159
445 3 151 154 157 160
446 2 151 154 157 158
447 2 151 154 157 159
448 1 290 289 292 293
449 1 290 289 292 294
450 2 290 289 292 295
451 1 291 289 292 293
452 1 291 289 292 294
453 2 291 289 292 295
454 2 286 289 292 293
455 2 286 289 292 294
456 3 286 289 292 295
457 1 344 343 346 347
458 1 344 343 346 348
459 2 344 343 346 349
460 1 345 343 346 347
461 1 345 343 346 348
462 2 345 343 346 349
463 2 340 343 346 347
464 2 340 343 346 348
465 3 340 343 346 349
466 1 161 160 163 164
467 1 161 160 163 165
468 2 161 160 163 166
469 1 162 160 163 164
470 1 162 160 163 165
471 2 162 160 163 166
472 2 157 160 163 164
473 2 157 160 163 165
474 3 157 160 163 166
475 2 82 85 88 89
476 2 82 85 88 90
477 3 82 85 88 91
478 1 86 85 88 89
479 1 86 85 88 90
480 2 86 85 88 91
481 1 87 85 88 89
482 1 87 85 88 90
483 2 87 85 88 91
484 1 848 847 850 851
485 1 848 847 850 852
486 2 848 847 850 853
487 1 849 847 850 851
488 1 849 847 850 852
489 2 849 847 850 853
490 2 844 847 850 851
491 2 844 847 850 852
492 3 844 847 850 853
493 2 841 844 847 848
494 2 841 844 847 849
495 3 841 844 847 850
496 1 845 844 847 848
497 1 845 844 847 849
498 2 845 844 847 850
499 1 846 844 847 848
500 1 846 844 847 849
501 2 846 844 847 850
502 1 1154 1153 1156 1157
503 1 1154 1153 1156 1158
504 2 1154 1153 1156 1159
505 1 1155 1153 1156 1157
506 1 1155 1153 1156 1158
507 2 1155 1153 1156 1159
508 2 1150 1153 1156 1157
509 2 1150 1153 1156 1158
510 3 1150 1153 1156 1159
511 2 88 91 94 96
512 3 88 91 94 97
513 2 88 91 94 95
514 1 92 91 94 96
515 2 92 91 94 97
516 1 92 91 94 95
517 1 93 91 94 96
518 2 93 91 94 97
519 1 93 91 94 95
520 1 617 616 619 620
521 1 617 616 619 621
522 2 617 616 619 622
523 1 618 616 619 620
524 1 618 616 619 621
525 2 618 616 619 622
526 2 613 616 619 620
527 2 613 616 619 621
528 3 613 616 619 622
529 1 104 103 106 107
530 1 104 103 106 108
531 2 104 103 106 109
532 1 105 103 106 107
533 1 105 103 106 108
534 2 105 103 106 109
535 2 100 103 106 107
536 2 100 103 106 108
537 3 100 103 106 109
538 1 624 622 625 626
539 1 624 622 625 627
540 2 624 622 625 628
541 2 619 622 625 626
542 2 619 622 625 627
543 3 619 622 625 628
544 1 623 622 625 626
545 1 623 622 625 627
546 2 623 622 625 628
547 2 154 157 160 161
548 2 154 157 160 162
549 3 154 157 160 163
550 1 158 157 160 161
551 1 158 157 160 162
552 2 158 157 160 163
553 1 159 157 160 161
554 1 159 157 160 162
555 2 159 157 160 163
556 1 80 79 82 83
557 1 80 79 82 84
558 2 80 79 82 85
559 1 81 79 82 83
560 1 81 79 82 84
561 2 81 79 82 85
562 2 76 79 82 83
563 2 76 79 82 84
564 3 76 79 82 85
565 2 280 283 286 288
566 3 280 283 286 289
567 2 280 283 286 287
568 1 284 283 286 288
569 2 284 283 286 289
570 1 284 283 286 287
571 1 285 283 286 288
572 2 285 283 286 289
573 1 285 283 286 287
574 2 616 619 622 624
575 3 616 619 622 625
576 2 616 619 622 623
577 1 620 619 622 624
578 2 620 619 622 625
579 1 620 619 622 623
580 1 621 619 622 624
581 2 621 619 622 625
582 1 621 619 622 623
583 2 107 106 109 112
584 1 107 106 109 110
585 1 107 106 109 111
586 2 108 106 109 112
587 1 108 106 109 110
588 1 108 106 109 111
589 3 103 106 109 112
590 2 103 106 109 110
591 2 103 106 109 111
592 2 352 355 358 360
593 2 352 355 358 359
594 1 356 355 358 360
595 1 356 355 358 359
596 1 357 355 358 360
597 1 357 355 358 359
598 2 1129 1132 1135 1136
599 2 1129 1132 1135 1137
600 3 1129 1132 1135 1138
601 1 1133 1132 1135 1136
602 1 1133 1132 1135 1137
603 2 1133 1132 1135 1138
604 1 1134 1132 1135 1136
605 1 1134 1132 1135 1137
606 2 1134 1132 1135 1138
607 1 48 46 49 50
608 1 48 46 49 51
609 2 48 46 49 52
610 2 43 46 49 50
611 2 43 46 49 51
612 3 43 46 49 52
613 1 47 46 49 50
614 1 47 46 49 51
615 2 47 46 49 52
616 2 34 37 40 41
617 2 34 37 40 42
618 3 34 37 40 43
619 1 38 37 40 41
620 1 38 37 40 42
621 2 38 37 40 43
622 1 39 37 40 41
623 1 39 37 40 42
624 2 39 37 40 43
625 1 1130 1129 1132 1133
626 1 1130 1129 1132 1134
627 2 1130 1129 1132 1135
628 1 1131 1129 1132 1133
629 1 1131 1129 1132 1134
630 2 1131 1129 1132 1135
631 2 1126 1129 1132 1133
632 2 1126 1129 1132 1134
633 3 1126 1129 1132 1135
634 1 1136 1135 1138 1139
635 1 1136 1135 1138 1140
636 1 1137 1135 1138 1139
637 1 1137 1135 1138 1140
638 2 1132 1135 1138 1139
639 2 1132 1135 1138 1140
640 1 41 40 43 44
641 1 41 40 43 45
642 2 41 40 43 46
643 1 42 40 43 44
644 1 42 40 43 45
645 2 42 40 43 46
646 2 37 40 43 44
647 2 37 40 43 45
648 3 37 40 43 46
649 2 73 76 79 80
650 2 73 76 79 81
651 3 73 76 79 82
652 1 77 76 79 80
653 1 77 76 79 81
654 2 77 76 79 82
655 1 78 76 79 80
656 1 78 76 79 81
657 2 78 76 79 82
658 1 56 55 58 59
659 1 56 55 58 60
660 1 57 55 58 59
661 1 57 55 58 60
662 2 52 55 58 59
663 2 52 55 58 60
664 2 35 34 37 40
665 1 35 34 37 38
666 1 35 34 37 39
667 2 36 34 37 40
668 1 36 34 37 38
669 1 36 34 37 39
670 3 31 34 37 40
671 2 31 34 37 38
672 2 31 34 37 39
673 2 1072 1075 1078 1080
674 2 1072 1075 1078 1079
675 1 1076 1075 1078 1080
676 1 1076 1075 1078 1079
677 1 1077 1075 1078 1080
678 1 1077 1075 1078 1079
679 1 50 49 52 53
680 1 50 49 52 54
681 2 50 49 52 55
682 1 51 49 52 53
683 1 51 49 52 54
684 2 51 49 52 55
685 2 46 49 52 53
686 2 46 49 52 54
687 3 46 49 52 55
688 2 1067 1066 1069 1072
689 1 1067 1066 1069 1070
690 1 1067 1066 1069 1071
691 2 1068 1066 1069 1072
692 1 1068 1066 1069 1070
693 1 1068 1066 1069 1071
694 3 1063 1066 1069 1072
695 2 1063 1066 1069 1070
696 2 1063 1066 1069 1071
697 2 904 907 910 912
698 3 904 907 910 913
699 2 904 907 910 911
700 1 908 907 910 912
701 2 908 907 910 913
702 1 908 907 910 911
703 1 909 907 910 912
704 2 909 907 910 913
705 1 909 907 910 911
706 2 49 52 55 56
707 2 49 52 55 57
708 3 49 52 55 58
709 1 53 52 55 56
710 1 53 52 55 57
711 2 53 52 55 58
712 1 54 52 55 56
713 1 54 52 55 57
714 2 54 52 55 58
715 1 905 904 907 908
716 1 905 904 907 909
717 2 905 904 907 910
718 1 906 904 907 908
719 1 906 904 907 909
720 2 906 904 907 910
721 2 901 904 907 908
722 2 901 904 907 909
723 3 901 904 907 910
724 2 40 43 46 48
725 3 40 43 46 49
726 2 40 43 46 47
727 1 44 43 46 48
728 2 44 43 46 49
729 1 44 43 46 47
730 1 45 43 46 48
731 2 45 43 46 49
732 1 45 43 46 47
733 1 912 910 913 914
734 1 912 910 913 915
735 2 912 910 913 916
736 2 907 910 913 914
737 2 907 910 913 915
738 3 907 910 913 916
739 1 911 910 913 914
740 1 911 910 913 915
741 2 911 910 913 916
742 1 914 913 916 917
743 1 914 913 916 918
744 2 914 913 916 919
745 1 915 913 916 917
746 1 915 913 916 918
747 2 915 913 916 919
748 2 910 913 916 917
749 2 910 913 916 918
750 3 910 913 916 919
751 1 1073 1072 1075 1076
752 1 1073 1072 1075 1077
753 2 1073 1072 1075 1078
754 1 1074 1072 1075 1076
755 1 1074 1072 1075 1077
756 2 1074 1072 1075 1078
757 2 1069 1072 1075 1076
758 2 1069 1072 1075 1077
759 3 1069 1072 1075 1078
760 1 902 901 904 905
761 1 902 901 904 906
762 2 902 901 904 907
763 1 903 901 904 905
764 1 903 901 904 906
765 2 903 901 904 907
766 2 1066 1069 1072 1073
767 2 1066 1069 1072 1074
768 3 1066 1069 1072 1075
769 1 1070 1069 1072 1073
770 1 1070 1069 1072 1074
771 2 1070 1069 1072 1075
772 1 1071 1069 1072 1073
773 1 1071 1069 1072 1074
774 2 1071 1069 1072 1075
775 1 1128 1126 1129 1130
776 1 1128 1126 1129 1131
777 2 1128 1126 1129 1132
778 2 1123 1126 1129 1130
779 2 1123 1126 1129 1131
780 3 1123 1126 1129 1132
781 1 1127 1126 1129 1130
782 1 1127 1126 1129 1131
783 2 1127 1126 1129 1132
784 1 824 823 826 827
785 1 824 823 826 828
786 2 824 823 826 829
787 1 825 823 826 827
788 1 825 823 826 828
789 2 825 823 826 829
790 2 820 823 826 827
791 2 820 823 826 828
792 3 820 823 826 829
793 1 1104 1102 1105 1106
794 1 1104 1102 1105 1107
795 2 1104 1102 1105 1108
796 2 1099 1102 1105 1106
797 2 1099 1102 1105 1107
798 3 1099 1102 1105 1108
799 1 1103 1102 1105 1106
800 1 1103 1102 1105 1107
801 2 1103 1102 1105 1108
802 2 826 829 832 833
803 2 826 829 832 834
804 3 826 829 832 835
805 1 830 829 832 833
806 1 830 829 832 834
807 2 830 829 832 835
808 1 831 829 832 833
809 1 831 829 832 834
810 2 831 829 832 835
811 2 1115 1114 1117 1120
812 1 1115 1114 1117 1118
813 1 1115 1114 1117 1119
814 2 1116 1114 1117 1120
815 1 1116 1114 1117 1118
816 1 1116 1114 1117 1119
817 3 1111 1114 1117 1120
818 2 1111 1114 1117 1118
819 2 1111 1114 1117 1119
820 2 1090 1093 1096 1097
821 2 1090 1093 1096 1098
822 3 1090 1093 1096 1099
823 1 1094 1093 1096 1097
824 1 1094 1093 1096 1098
825 2 1094 1093 1096 1099
826 1 1095 1093 1096 1097
827 1 1095 1093 1096 1098
828 2 1095 1093 1096 1099
829 1 833 832 835 836
830 1 833 832 835 837
831 2 833 832 835 838
832 1 834 832 835 836
833 1 834 832 835 837
834 2 834 832 835 838
835 2 829 832 835 836
836 2 829 832 835 837
837 3 829 832 835 838
838 2 697 700 703 704
839 2 697 700 703 705
840 3 697 700 703 706
841 1 701 700 703 704
842 1 701 700 703 705
843 2 701 700 703 706
844 1 702 700 703 704
845 1 702 700 703 705
846 2 702 700 703 706
847 1 1106 1105 1108 1109
848 1 1106 1105 1108 1110
849 2 1106 1105 1108 1111
850 1 1107 1105 1108 1109
851 1 1107 1105 1108 1110
852 2 1107 1105 1108 1111
853 2 1102 1105 1108 1109
854 2 1102 1105 1108 1110
855 3 1102 1105 1108 1111
856 1 176 175 178 179
857 1 176 175 178 180
858 1 177 175 178 179
859 1 177 175 178 180
860 2 172 175 178 179
861 2 172 175 178 180
862 2 1096 1099 1102 1104
863 3 1096 1099 1102 1105
864 2 1096 1099 1102 1103
865 1 1100 1099 1102 1104
866 2 1100 1099 1102 1105
867 1 1100 1099 1102 1103
868 1 1101 1099 1102 1104
869 2 1101 1099 1102 1105
870 1 1101 1099 1102 1103
871 1 818 817 820 821
872 1 818 817 820 822
873 2 818 817 820 823
874 1 819 817 820 821
875 1 819 817 820 822
876 2 819 817 820 823
877 2 814 817 820 821
878 2 814 817 820 822
879 3 814 817 820 823
880 2 817 820 823 824
881 2 817 820 823 825
882 3 817 820 823 826
883 1 821 820 823 824
884 1 821 820 823 825
885 2 821 820 823 826
886 1 822 820 823 824
887 1 822 820 823 825
888 2 822 820 823 826
889 1 698 697 700 701
890 1 698 697 700 702
891 2 698 697 700 703
892 1 699 697 700 701
893 1 699 697 700 702
894 2 699 697 700 703
895 2 694 697 700 701
896 2 694 697 700 702
897 3 694 697 700 703
898 2 169 172 175 176
899 2 169 172 175 177
900 3 169 172 175 178
901 1 173 172 175 176
902 1 173 172 175 177
903 2 173 172 175 178
904 1 174 172 175 176
905 1 174 172 175 177
906 2 174 172 175 178
907 1 816 814 817 818
908 1 816 814 817 819
909 2 816 814 817 820
910 2 811 814 817 818
911 2 811 814 817 819
912 3 811 814 817 820
913 1 815 814 817 818
914 1 815 814 817 819
915 2 815 814 817 820
916 1 170 169 172 173
917 1 170 169 172 174
918 2 170 169 172 175
919 1 171 169 172 173
920 1 171 169 172 174
921 2 171 169 172 175
922 2 166 169 172 173
923 2 166 169 172 174
924 3 166 169 172 175
925 2 827 826 829 832
926 1 827 826 829 830
927 1 827 826 829 831
928 2 828 826 829 832
929 1 828 826 829 830
930 1 828 826 829 831
931 3 823 826 829 832
932 2 823 826 829 830
933 2 823 826 829 831
934 1 1097 1096 1099 1100
935 1 1097 1096 1099 1101
936 2 1097 1096 1099 1102
937 1 1098 1096 1099 1100
938 1 1098 1096 1099 1101
939 2 1098 1096 1099 1102
940 2 1093 1096 1099 1100
941 2 1093 1096 1099 1101
942 3 1093 1096 1099 1102
943 1 1112 1111 1114 1115
944 1 1112 1111 1114 1116
945 2 1112 1111 1114 1117
946 1 1113 1111 1114 1115
947 1 1113 1111 1114 1116
948 2 1113 1111 1114 1117
949 2 1108 1111 1114 1115
950 2 1108 1111 1114 1116
951 3 1108 1111 1114 1117
952 2 688 691 694 696
953 3 688 691 694 697
954 2 688 691 694 695
955 1 692 691 694 696
956 2 692 691 694 697
957 1 692 691 694 695
958 1 693 691 694 696
959 2 693 691 694 697
960 1 693 691 694 695
961 2 1105 1108 1111 1112
962 2 1105 1108 1111 1113
963 3 1105 1108 1111 1114
964 1 1109 1108 1111 1112
965 1 1109 1108 1111 1113
966 2 1109 1108 1111 1114
967 1 1110 1108 1111 1112
968 1 1110 1108 1111 1113
969 2 1110 1108 1111 1114
970 1 696 694 697 698
971 1 696 694 697 699
972 2 696 694 697 700
973 2 691 694 697 698
974 2 691 694 697 699
975 3 691 694 697 700
976 1 695 694 697 698
977 1 695 694 697 699
978 2 695 694 697 700
979 1 257 256 259 260
980 1 257 256 259 261
981 2 257 256 259 262
982 1 258 256 259 260
983 1 258 256 259 261
984 2 258 256 259 262
985 2 253 256 259 260
986 2 253 256 259 261
987 3 253 256 259 262
988 1 896 895 898 899
989 1 896 895 898 900
990 1 897 895 898 899
991 1 897 895 898 900
992 2 892 895 898 899
993 2 892 895 898 900
994 2 1091 1090 1093 1096
995 1 1091 1090 1093 1094
996 1 1091 1090 1093 1095
997 2 1092 1090 1093 1096
998 1 1092 1090 1093 1094
999 1 1092 1090 1093 1095
1000 3 1087 1090 1093 1096
1001 2 1087 1090 1093 1094
1002 2 1087 1090 1093 1095
1003 1 680 679 682 683
1004 1 680 679 682 684
1005 2 680 679 682 685
1006 1 681 679 682 683
1007 1 681 679 682 684
1008 2 681 679 682 685
1009 2 676 679 682 683
1010 2 676 679 682 684
1011 3 676 679 682 685
1012 1 689 688 691 692
1013 1 689 688 691 693
1014 2 689 688 691 694
1015 1 690 688 691 692
1016 1 690 688 691 693
1017 2 690 688 691 694
1018 2 685 688 691 692
1019 2 685 688 691 693
1020 3 685 688 691 694
1021 1 1088 1087 1090 1091
1022 1 1088 1087 1090 1092
1023 2 1088 1087 1090 1093
1024 1 1089 1087 1090 1091
1025 1 1089 1087 1090 1092
1026 2 1089 1087 1090 1093
1027 2 1084 1087 1090 1091
1028 2 1084 1087 1090 1092
1029 3 1084 1087 1090 1093
1030 1 872 871 874 875
1031 1 872 871 874 876
1032 2 872 871 874 877
1033 1 873 871 874 875
1034 1 873 871 874 876
1035 2 873 871 874 877
1036 2 868 871 874 875
1037 2 868 871 874 876
1038 3 868 871 874 877
1039 2 889 892 895 896
1040 2 889 892 895 897
1041 3 889 892 895 898
1042 1 893 892 895 896
1043 1 893 892 895 897
1044 2 893 892 895 898
1045 1 894 892 895 896
1046 1 894 892 895 897
1047 2 894 892 895 898
1048 1 576 574 577 578
1049 1 576 574 577 579
1050 2 576 574 577 580
1051 2 571 574 577 578
1052 2 571 574 577 579
1053 3 571 574 577 580
1054 1 575 574 577 578
1055 1 575 574 577 579
1056 2 575 574 577 580
1057 2 337 340 343 344
1058 2 337 340 343 345
1059 3 337 340 343 346
1060 1 341 340 343 344
1061 1 341 340 343 345
1062 2 341 340 343 346
1063 1 342 340 343 344
1064 1 342 340 343 345
1065 2 342 340 343 346
1066 2 1081 1084 1087 1088
1067 2 1081 1084 1087 1089
1068 3 1081 1084 1087 1090
1069 1 1085 1084 1087 1088
1070 1 1085 1084 1087 1089
1071 2 1085 1084 1087 1090
1072 1 1086 1084 1087 1088
1073 1 1086 1084 1087 1089
1074 2 1086 1084 1087 1090
1075 1 866 865 868 869
1076 1 866 865 868 870
1077 2 866 865 868 871
1078 1 867 865 868 869
1079 1 867 865 868 870
1080 2 867 865 868 871
1081 2 862 865 868 869
1082 2 862 865 868 870
1083 3 862 865 868 871
1084 1 890 889 892 893
1085 1 890 889 892 894
1086 2 890 889 892 895
1087 1 891 889 892 893
1088 1 891 889 892 894
1089 2 891 889 892 895
1090 2 886 889 892 893
1091 2 886 889 892 894
1092 3 886 889 892 895
1093 2 856 859 862 864
1094 3 856 859 862 865
1095 2 856 859 862 863
1096 1 860 859 862 864
1097 2 860 859 862 865
1098 1 860 859 862 863
1099 1 861 859 862 864
1100 2 861 859 862 865
1101 1 861 859 862 863
1102 2 880 883 886 888
1103 3 880 883 886 889
1104 2 880 883 886 887
1105 1 884 883 886 888
1106 2 884 883 886 889
1107 1 884 883 886 887
1108 1 885 883 886 888
1109 2 885 883 886 889
1110 1 885 883 886 887
1111 2 160 163 166 168
1112 3 160 163 166 169
1113 2 160 163 166 167
1114 1 164 163 166 168
1115 2 164 163 166 169
1116 1 164 163 166 167
1117 1 165 163 166 168
1118 2 165 163 166 169
1119 1 165 163 166 167
1120 1 864 862 865 866
1121 1 864 862 865 867
1122 2 864 862 865 868
1123 2 859 862 865 866
1124 2 859 862 865 867
1125 3 859 862 865 868
1126 1 863 862 865 866
1127 1 863 862 865 867
1128 2 863 862 865 868
1129 2 874 877 880 881
1130 2 874 877 880 882
1131 3 874 877 880 883
1132 1 878 877 880 881
1133 1 878 877 880 882
1134 2 878 877 880 883
1135 1 879 877 880 881
1136 1 879 877 880 882
1137 2 879 877 880 883
1138 1 1082 1081 1084 1085
1139 1 1082 1081 1084 1086
1140 2 1082 1081 1084 1087
1141 1 1083 1081 1084 1085
1142 1 1083 1081 1084 1086
1143 2 1083 1081 1084 1087
1144 2 865 868 871 872
1145 2 865 868 871 873
1146 3 865 868 871 874
1147 1 869 868 871 872
1148 1 869 868 871 873
1149 2 869 868 871 874
1150 1 870 868 871 872
1151 1 870 868 871 873
1152 2 870 868 871 874
1153 1 338 337 340 341
1154 1 338 337 340 342
1155 2 338 337 340 343
1156 1 339 337 340 341
1157 1 339 337 340 342
1158 2 339 337 340 343
1159 2 334 337 340 341
1160 2 334 337 340 342
1161 3 334 337 340 343
1162 1 881 880 883 884
1163 1 881 880 883 885
1164 2 881 880 883 886
1165 1 882 880 883 884
1166 1 882 880 883 885
1167 2 882 880 883 886
1168 2 877 880 883 884
1169 2 877 880 883 885
1170 3 877 880 883 886
1171 1 888 886 889 890
1172 1 888 886 889 891
1173 2 888 886 889 892
1174 2 883 886 889 890
1175 2 883 886 889 891
1176 3 883 886 889 892
1177 1 887 886 889 890
1178 1 887 886 889 891
1179 2 887 886 889 892
1180 1 857 856 859 860
1181 1 857 856 859 861
1182 2 857 856 859 862
1183 1 858 856 859 860
1184 1 858 856 859 861
1185 2 858 856 859 862
1186 2 853 856 859 860
1187 2 853 856 859 861
1188 3 853 856 859 862
1189 2 682 685 688 689
1190 2 682 685 688 690
1191 3 682 685 688 691
1192 1 686 685 688 689
1193 1 686 685 688 690
1194 2 686 685 688 691
1195 1 687 685 688 689
1196 1 687 685 688 690
1197 2 687 685 688 691
1198 1 168 166 169 170
1199 1 168 166 169 171
1200 2 168 166 169 172
1201 2 163 166 169 170
1202 2 163 166 169 171
1203 3 163 166 169 172
1204 1 167 166 169 170
1205 1 167 166 169 171
1206 2 167 166 169 172
1207 2 683 682 685 688
1208 1 683 682 685 686
1209 1 683 682 685 687
1210 2 684 682 685 688
1211 1 684 682 685 686
1212 1 684 682 685 687
1213 3 679 682 685 688
1214 2 679 682 685 686
1215 2 679 682 685 687
1216 1 578 577 580 581
1217 1 578 577 580 582
1218 2 578 577 580 583
1219 1 579 577 580 581
1220 1 579 577 580 582
1221 2 579 577 580 583
1222 2 574 577 580 581
1223 2 574 577 580 582
1224 3 574 577 580 583
1225 2 875 874 877 880
1226 1 875 874 877 878
1227 1 875 874 877 879
1228 2 876 874 877 880
1229 1 876 874 877 878
1230 1 876 874 877 879
1231 3 871 874 877 880
1232 2 871 874 877 878
1233 2 871 874 877 879
1234 2 577 580 583 584
1235 2 577 580 583 585
1236 3 577 580 583 586
1237 1 581 580 583 584
1238 1 581 580 583 585
1239 2 581 580 583 586
1240 1 582 580 583 584
1241 1 582 580 583 585
1242 2 582 580 583 586
1243 2 347 346 349 352
1244 1 347 346 349 350
1245 1 347 346 349 351
1246 2 348 346 349 352
1247 1 348 346 349 350
1248 1 348 346 349 351
1249 3 343 346 349 352
1250 2 343 346 349 350
1251 2 343 346 349 351
1252 2 241 244 247 248
1253 2 241 244 247 249
1254 3 241 244 247 250
1255 1 245 244 247 248
1256 1 245 244 247 249
1257 2 245 244 247 250
1258 1 246 244 247 248
1259 1 246 244 247 249
1260 2 246 244 247 250
1261 2 1114 1117 1120 1121
1262 2 1114 1117 1120 1122
1263 3 1114 1117 1120 1123
1264 1 1118 1117 1120 1121
1265 1 1118 1117 1120 1122
1266 2 1118 1117 1120 1123
1267 1 1119 1117 1120 1121
1268 1 1119 1117 1120 1122
1269 2 1119 1117 1120 1123
1270 2 913 916 919 920
1271 2 913 916 919 921
1272 3 913 916 919 922
1273 1 917 916 919 920
1274 1 917 916 919 921
1275 2 917 916 919 922
1276 1 918 916 919 920
1277 1 918 916 919 921
1278 2 918 916 919 922
1279 2 544 547 550 552
1280 3 544 547 550 553
1281 2 544 547 550 551
1282 1 548 547 550 552
1283 2 548 547 550 553
1284 1 548 547 550 551
1285 1 549 547 550 552
1286 2 549 547 550 553
1287 1 549 547 550 551
1288 1 72 70 73 74
1289 1 72 70 73 75
1290 2 72 70 73 76
1291 2 67 70 73 74
1292 2 67 70 73 75
1293 3 67 70 73 76
1294 1 71 70 73 74
1295 1 71 70 73 75
1296 2 71 70 73 76
1297 1 920 919 922 923
1298 1 920 919 922 924
1299 2 920 919 922 925
1300 1 921 919 922 923
1301 1 921 919 922 924
1302 2 921 919 922 925
1303 2 916 919 922 923
1304 2 916 919 922 924
1305 3 916 919 922 925
1306 2 922 925 928 929
1307 2 922 925 928 930
1308 3 922 925 928 931
1309 1 926 925 928 929
1310 1 926 925 928 930
1311 2 926 925 928 931
1312 1 927 925 928 929
1313 1 927 925 928 930
1314 2 927 925 928 931
1315 1 545 544 547 548
1316 1 545 544 547 549
1317 2 545 544 547 550
1318 1 546 544 547 548
1319 1 546 544 547 549
1320 2 546 544 547 550
1321 2 541 544 547 548
1322 2 541 544 547 549
1323 3 541 544 547 550
1324 2 923 922 925 928
1325 1 923 922 925 926
1326 1 923 922 925 927
1327 2 924 922 925 928
1328 1 924 922 925 926
1329 1 924 922 925 927
1330 3 919 922 925 928
1331 2 919 922 925 926
1332 2 919 922 925 927
1333 1 569 568 571 572
1334 1 569 568 571 573
1335 2 569 568 571 574
1336 1 570 568 571 572
1337 1 570 568 571 573
1338 2 570 568 571 574
1339 2 565 568 571 572
1340 2 565 568 571 573
1341 3 565 568 571 574
1342 2 928 931 934 936
1343 3 928 931 934 937
1344 2 928 931 934 935
1345 1 932 931 934 936
1346 2 932 931 934 937
1347 1 932 931 934 935
1348 1 933 931 934 936
1349 2 933 931 934 937
1350 1 933 931 934 935
1351 2 568 571 574 576
1352 3 568 571 574 577
1353 2 568 571 574 575
1354 1 572 571 574 576
1355 2 572 571 574 577
1356 1 572 571 574 575
1357 1 573 571 574 576
1358 2 573 571 574 577
1359 1 573 571 574 575
1360 2 1120 1123 1126 1128
1361 3 1120 1123 1126 1129
1362 2 1120 1123 1126 1127
1363 1 1124 1123 1126 1128
1364 2 1124 1123 1126 1129
1365 1 1124 1123 1126 1127
1366 1 1125 1123 1126 1128
1367 2 1125 1123 1126 1129
1368 1 1125 1123 1126 1127
1369 2 106 109 112 113
1370 2 106 109 112 114
1371 3 106 109 112 115
1372 1 110 109 112 113
1373 1 110 109 112 114
1374 2 110 109 112 115
1375 1 111 109 112 113
1376 1 111 109 112 114
1377 2 111 109 112 115
1378 1 552 550 553 554
1379 1 552 550 553 555
1380 2 552 550 553 556
1381 2 547 550 553 554
1382 2 547 550 553 555
1383 3 547 550 553 556
1384 1 551 550 553 554
1385 1 551 550 553 555
1386 2 551 550 553 556
1387 1 74 73 76 77
1388 1 74 73 76 78
1389 2 74 73 76 79
1390 1 75 73 76 77
1391 1 75 73 76 78
1392 2 75 73 76 79
1393 2 70 73 76 77
1394 2 70 73 76 78
1395 3 70 73 76 79
1396 1 1121 1120 1123 1124
1397 1 1121 1120 1123 1125
1398 2 1121 1120 1123 1126
1399 1 1122 1120 1123 1124
1400 1 1122 1120 1123 1125
1401 2 1122 1120 1123 1126
1402 2 1117 1120 1123 1124
1403 2 1117 1120 1123 1125
1404 3 1117 1120 1123 1126
1405 2 553 556 559 560
1406 2 553 556 559 561
1407 3 553 556 559 562
1408 1 557 556 559 560
1409 1 557 556 559 561
1410 2 557 556 559 562
1411 1 558 556 559 560
1412 1 558 556 559 561
1413 2 558 556 559 562
1414 2 563 562 565 568
1415 1 563 562 565 566
1416 1 563 562 565 567
1417 2 564 562 565 568
1418 1 564 562 565 566
1419 1 564 562 565 567
1420 3 559 562 565 568
1421 2 559 562 565 566
1422 2 559 562 565 567
1423 1 929 928 931 932
1424 1 929 928 931 933
1425 2 929 928 931 934
1426 1 930 928 931 932
1427 1 930 928 931 933
1428 2 930 928 931 934
1429 2 925 928 931 932
1430 2 925 928 931 933
1431 3 925 928 931 934
1432 1 560 559 562 563
1433 1 560 559 562 564
1434 2 560 559 562 565
1435 1 561 559 562 563
1436 1 561 559 562 564
1437 2 561 559 562 565
1438 2 556 559 562 563
1439 2 556 559 562 564
1440 3 556 559 562 565
1441 2 251 250 253 256
1442 1 251 250 253 254
1443 1 251 250 253 255
1444 2 252 250 253 256
1445 1 252 250 253 254
1446 1 252 250 253 255
1447 3 247 250 253 256
1448 2 247 250 253 254
1449 2 247 250 253 255
1450 1 248 247 250 251
1451 1 248 247 250 252
1452 2 248 247 250 253
1453 1 249 247 250 251
1454 1 249 247 250 252
1455 2 249 247 250 253
1456 2 244 247 250 251
1457 2 244 247 250 252
1458 3 244 247 250 253
1459 2 64 67 70 72
1460 3 64 67 70 73
1461 2 64 67 70 71
1462 1 68 67 70 72
1463 2 68 67 70 73
1464 1 68 67 70 71
1465 1 69 67 70 72
1466 2 69 67 70 73
1467 1 69 67 70 71
1468 2 562 565 568 569
1469 2 562 565 568 570
1470 3 562 565 568 571
1471 1 566 565 568 569
1472 1 566 565 568 570
1473 2 566 565 568 571
1474 1 567 565 568 569
1475 1 567 565 568 570
1476 2 567 565 568 571
1477 1 113 112 115 116
1478 1 113 112 115 117
1479 2 113 112 115 118
1480 1 114 112 115 116
1481 1 114 112 115 117
1482 2 114 112 115 118
1483 2 109 112 115 116
1484 2 109 112 115 117
1485 3 109 112 115 118
1486 2 112 115 118 120
1487 2 112 115 118 119
1488 1 116 115 118 120
1489 1 116 115 118 119
1490 1 117 115 118 120
1491 1 117 115 118 119
1492 1 65 64 67 68
1493 1 65 64 67 69
1494 2 65 64 67 70
1495 1 66 64 67 68
1496 1 66 64 67 69
1497 2 66 64 67 70
1498 2 61 64 67 68
1499 2 61 64 67 69
1500 3 61 64 67 70
1501 1 554 553 556 557
1502 1 554 553 556 558
1503 2 554 553 556 559
1504 1 555 553 556 557
1505 1 555 553 556 558
1506 2 555 553 556 559
1507 2 550 553 556 557
1508 2 550 553 556 558
1509 3 550 553 556 559
1510 1 242 241 244 245
1511 1 242 241 244 246
1512 2 242 241 244 247
1513 1 243 241 244 245
1514 1 243 241 244 246
1515 2 243 241 244 247
1516 1 62 61 64 65
1517 1 62 61 64 66
1518 2 62 61 64 67
1519 1 63 61 64 65
1520 1 63 61 64 66
1521 2 63 61 64 67
1522 1 542 541 544 545
1523 1 542 541 544 546
1524 2 542 541 544 547
1525 1 543 541 544 545
1526 1 543 541 544 546
1527 2 543 541 544 547
1528 1 936 934 937 938
1529 1 936 934 937 939
1530 2 936 934 937 940
1531 2 931 934 937 938
1532 2 931 934 937 939
1533 3 931 934 937 940
1534 1 935 934 937 938
1535 1 935 934 937 939
1536 2 935 934 937 940
1537 1 953 952 955 956
1538 1 953 952 955 957
1539 2 953 952 955 958
1540 1 954 952 955 956
1541 1 954 952 955 957
1542 2 954 952 955 958
1543 2 949 952 955 956
1544 2 949 952 955 957
1545 3 949 952 955 958
1546 2 529 532 535 536
1547 2 529 532 535 537
1548 3 529 532 535 538
1549 1 533 532 535 536
1550 1 533 532 535 537
1551 2 533 532 535 538
1552 1 534 532 535 536
1553 1 534 532 535 537
1554 2 534 532 535 538
1555 2 736 739 742 744
1556 3 736 739 742 745
1557 2 736 739 742 743
1558 1 740 739 742 744
1559 2 740 739 742 745
1560 1 740 739 742 743
1561 1 741 739 742 744
1562 2 741 739 742 745
1563 1 741 739 742 743
1564 2 520 523 526 528
1565 3 520 523 526 529
1566 2 520 523 526 527
1567 1 524 523 526 528
1568 2 524 523 526 529
1569 1 524 523 526 527
1570 1 525 523 526 528
1571 2 525 523 526 529
1572 1 525 523 526 527
1573 2 721 724 727 728
1574 2 721 724 727 729
1575 3 721 724 727 730
1576 1 725 724 727 728
1577 1 725 724 727 729
1578 2 725 724 727 730
1579 1 726 724 727 728
1580 1 726 724 727 729
1581 2 726 724 727 730
1582 2 730 733 736 737
1583 2 730 733 736 738
1584 3 730 733 736 739
1585 1 734 733 736 737
1586 1 734 733 736 738
1587 2 734 733 736 739
1588 1 735 733 736 737
1589 1 735 733 736 738
1590 2 735 733 736 739
1591 2 994 997 1000 1001
1592 2 994 997 1000 1002
1593 3 994 997 1000 1003
1594 1 998 997 1000 1001
1595 1 998 997 1000 1002
1596 2 998 997 1000 1003
1597 1 999 997 1000 1001
1598 1 999 997 1000 1002
1599 2 999 997 1000 1003
1600 1 530 529 532 533
1601 1 530 529 532 534
1602 2 530 529 532 535
1603 1 531 529 532 533
1604 1 531 529 532 534
1605 2 531 529 532 535
1606 2 526 529 532 533
1607 2 526 529 532 534
1608 3 526 529 532 535
1609 1 264 262 265 266
1610 1 264 262 265 267
1611 2 264 262 265 268
1612 2 259 262 265 266
1613 2 259 262 265 267
1614 3 259 262 265 268
1615 1 263 262 265 266
1616 1 263 262 265 267
1617 2 263 262 265 268
1618 1 728 727 730 731
1619 1 728 727 730 732
1620 2 728 727 730 733
1621 1 729 727 730 731
1622 1 729 727 730 732
1623 2 729 727 730 733
1624 2 724 727 730 731
1625 2 724 727 730 732
1626 3 724 727 730 733
1627 1 521 520 523 524
1628 1 521 520 523 525
1629 2 521 520 523 526
1630 1 522 520 523 524
1631 1 522 520 523 525
1632 2 522 520 523 526
1633 2 517 520 523 524
1634 2 517 520 523 525
1635 3 517 520 523 526
1636 2 995 994 997 1000
1637 1 995 994 997 998
1638 1 995 994 997 999
1639 2 996 994 997 1000
1640 1 996 994 997 998
1641 1 996 994 997 999
1642 3 991 994 997 1000
1643 2 991 994 997 998
1644 2 991 994 997 999
1645 2 793 796 799 800
1646 2 793 796 799 801
1647 3 793 796 799 802
1648 1 797 796 799 800
1649 1 797 796 799 801
1650 2 797 796 799 802
1651 1 798 796 799 800
1652 1 798 796 799 801
1653 2 798 796 799 802
1654 2 731 730 733 736
1655 1 731 730 733 734
1656 1 731 730 733 735
1657 2 732 730 733 736
1658 1 732 730 733 734
1659 1 732 730 733 735
1660 3 727 730 733 736
1661 2 727 730 733 734
1662 2 727 730 733 735
1663 1 528 526 529 530
1664 1 528 526 529 531
1665 2 528 526 529 532
1666 2 523 526 529 530
1667 2 523 526 529 531
1668 3 523 526 529 532
1669 1 527 526 529 530
1670 1 527 526 529 531
1671 2 527 526 529 532
1672 1 314 313 316 317
1673 1 314 313 316 318
1674 2 314 313 316 319
1675 1 315 313 316 317
1676 1 315 313 316 318
1677 2 315 313 316 319
1678 2 310 313 316 317
1679 2 310 313 316 318
1680 3 310 313 316 319
1681 1 992 991 994 995
1682 1 992 991 994 996
1683 2 992 991 994 997
1684 1 993 991 994 995
1685 1 993 991 994 996
1686 2 993 991 994 997
1687 2 988 991 994 995
1688 2 988 991 994 996
1689 3 988 991 994 997
1690 1 744 742 745 746
1691 1 744 742 745 747
1692 2 744 742 745 748
1693 2 739 742 745 746
1694 2 739 742 745 747
1695 3 739 742 745 748
1696 1 743 742 745 746
1697 1 743 742 745 747
1698 2 743 742 745 748
1699 1 536 535 538 539
1700 1 536 535 538 540
1701 1 537 535 538 539
1702 1 537 535 538 540
1703 2 532 535 538 539
1704 2 532 535 538 540
1705 2 323 322 325 328
1706 1 323 322 325 326
1707 1 323 322 325 327
1708 2 324 322 325 328
1709 1 324 322 325 326
1710 1 324 322 325 327
1711 3 319 322 325 328
1712 2 319 322 325 326
1713 2 319 322 325 327
1714 1 737 736 739 740
1715 1 737 736 739 741
1716 2 737 736 739 742
1717 1 738 736 739 740
1718 1 738 736 739 741
1719 2 738 736 739 742
1720 2 733 736 739 740
1721 2 733 736 739 741
1722 3 733 736 739 742
1723 1 422 421 424 425
1724 1 422 421 424 426
1725 2 422 421 424 427
1726 1 423 421 424 425
1727 1 423 421 424 426
1728 2 423 421 424 427
1729 2 514 517 520 521
1730 2 514 517 520 522
1731 3 514 517 520 523
1732 1 518 517 520 521
1733 1 518 517 520 522
1734 2 518 517 520 523
1735 1 519 517 520 521
1736 1 519 517 520 522
1737 2 519 517 520 523
1738 2 985 988 991 992
1739 2 985 988 991 993
1740 3 985 988 991 994
1741 1 989 988 991 992
1742 1 989 988 991 993
1743 2 989 988 991 994
1744 1 990 988 991 992
1745 1 990 988 991 993
1746 2 990 988 991 994
1747 2 952 955 958 960
1748 2 952 955 958 959
1749 1 956 955 958 960
1750 1 956 955 958 959
1751 1 957 955 958 960
1752 1 957 955 958 959
1753 1 722 721 724 725
1754 1 722 721 724 726
1755 2 722 721 724 727
1756 1 723 721 724 725
1757 1 723 721 724 726
1758 2 723 721 724 727
1759 1 320 319 322 323
1760 1 320 319 322 324
1761 2 320 319 322 325
1762 1 321 319 322 323
1763 1 321 319 322 324
1764 2 321 319 322 325
1765 2 316 319 322 323
1766 2 316 319 322 324
1767 3 316 319 322 325
1768 1 1001 1000 1003 1004
1769 1 1001 1000 1003 1005
1770 2 1001 1000 1003 1006
1771 1 1002 1000 1003 1004
1772 1 1002 1000 1003 1005
1773 2 1002 1000 1003 1006
1774 2 997 1000 1003 1004
1775 2 997 1000 1003 1005
1776 3 997 1000 1003 1006
1777 2 313 316 319 320
1778 2 313 316 319 321
1779 3 313 316 319 322
1780 1 317 316 319 320
1781 1 317 316 319 321
1782 2 317 316 319 322
1783 1 318 316 319 320
1784 1 318 316 319 321
1785 2 318 316 319 322
1786 2 202 205 208 209
1787 2 202 205 208 210
1788 3 202 205 208 211
1789 1 206 205 208 209
1790 1 206 205 208 210
1791 2 206 205 208 211
1792 1 207 205 208 209
1793 1 207 205 208 210
1794 2 207 205 208 211
1795 1 194 193 196 197
1796 1 194 193 196 198
1797 2 194 193 196 199
1798 1 195 193 196 197
1799 1 195 193 196 198
1800 2 195 193 196 199
1801 2 190 193 196 197
1802 2 190 193 196 198
1803 3 190 193 196 199
1804 1 137 136 139 140
1805 1 137 136 139 141
1806 2 137 136 139 142
1807 1 138 136 139 140
1808 1 138 136 139 141
1809 2 138 136 139 142
1810 2 133 136 139 140
1811 2 133 136 139 141
1812 3 133 136 139 142
1813 2 505 508 511 512
1814 2 505 508 511 513
1815 3 505 508 511 514
1816 1 509 508 511 512
1817 1 509 508 511 513
1818 2 509 508 511 514
1819 1 510 508 511 512
1820 1 510 508 511 513
1821 2 510 508 511 514
1822 1 185 184 187 188
1823 1 185 184 187 189
1824 2 185 184 187 190
1825 1 186 184 187 188
1826 1 186 184 187 189
1827 2 186 184 187 190
1828 2 181 184 187 188
1829 2 181 184 187 189
1830 3 181 184 187 190
1831 1 782 781 784 785
1832 1 782 781 784 786
1833 2 782 781 784 787
1834 1 783 781 784 785
1835 1 783 781 784 786
1836 2 783 781 784 787
1837 1 144 142 145 146
1838 1 144 142 145 147
1839 2 144 142 145 148
1840 2 139 142 145 146
1841 2 139 142 145 147
1842 3 139 142 145 148
1843 1 143 142 145 146
1844 1 143 142 145 147
1845 2 143 142 145 148
1846 2 130 133 136 137
1847 2 130 133 136 138
1848 3 130 133 136 139
1849 1 134 133 136 137
1850 1 134 133 136 138
1851 2 134 133 136 139
1852 1 135 133 136 137
1853 1 135 133 136 138
1854 2 135 133 136 139
1855 1 192 190 193 194
1856 1 192 190 193 195
1857 2 192 190 193 196
1858 2 187 190 193 194
1859 2 187 190 193 195
1860 3 187 190 193 196
1861 1 191 190 193 194
1862 1 191 190 193 195
1863 2 191 190 193 196
1864 2 193 196 199 200
1865 2 193 196 199 201
1866 3 193 196 199 202
1867 1 197 196 199 200
1868 1 197 196 199 201
1869 2 197 196 199 202
1870 1 198 196 199 200
1871 1 198 196 199 201
1872 2 198 196 199 202
1873 2 145 148 151 152
1874 2 145 148 151 153
1875 3 145 148 151 154
1876 1 149 148 151 152
1877 1 149 148 151 153
1878 2 149 148 151 154
1879 1 150 148 151 152
1880 1 150 148 151 153
1881 2 150 148 151 154
1882 2 131 130 133 136
1883 1 131 130 133 134
1884 1 131 130 133 135
1885 2 132 130 133 136
1886 1 132 130 133 134
1887 1 132 130 133 135
1888 3 127 130 133 136
1889 2 127 130 133 134
1890 2 127 130 133 135
1891 2 745 748 751 752
1892 2 745 748 751 753
1893 3 745 748 751 754
1894 1 749 748 751 752
1895 1 749 748 751 753
1896 2 749 748 751 754
1897 1 750 748 751 752
1898 1 750 748 751 753
1899 2 750 748 751 754
1900 1 665 664 667 668
1901 1 665 664 667 669
1902 2 665 664 667 670
1903 1 666 664 667 668
1904 1 666 664 667 669
1905 2 666 664 667 670
1906 2 661 664 667 668
1907 2 661 664 667 669
1908 3 661 664 667 670
1909 2 784 787 790 792
1910 3 784 787 790 793
1911 2 784 787 790 791
1912 1 788 787 790 792
1913 2 788 787 790 793
1914 1 788 787 790 791
1915 1 789 787 790 792
1916 2 789 787 790 793
1917 1 789 787 790 791
1918 2 136 139 142 144
1919 3 136 139 142 145
1920 2 136 139 142 143
1921 1 140 139 142 144
1922 2 140 139 142 145
1923 1 140 139 142 143
1924 1 141 139 142 144
1925 2 141 139 142 145
1926 1 141 139 142 143
1927 1 128 127 130 131
1928 1 128 127 130 132
1929 2 128 127 130 133
1930 1 129 127 130 131
1931 1 129 127 130 132
1932 2 129 127 130 133
1933 2 124 127 130 131
1934 2 124 127 130 132
1935 3 124 127 130 133
1936 1 506 505 508 509
1937 1 506 505 508 510
1938 2 506 505 508 511
1939 1 507 505 508 509
1940 1 507 505 508 510
1941 2 507 505 508 511
1942 2 502 505 508 509
1943 2 502 505 508 510
1944 3 502 505 508 511
1945 2 203 202 205 208
1946 1 203 202 205 206
1947 1 203 202 205 207
1948 2 204 202 205 208
1949 1 204 202 205 206
1950 1 204 202 205 207
1951 3 199 202 205 208
1952 2 199 202 205 206
1953 2 199 202 205 207
1954 1 504 502 505 506
1955 1 504 502 505 507
1956 2 504 502 505 508
1957 2 499 502 505 506
1958 2 499 502 505 507
1959 3 499 502 505 508
1960 1 503 502 505 506
1961 1 503 502 505 507
1962 2 503 502 505 508
1963 2 496 499 502 504
1964 3 496 499 502 505
1965 2 496 499 502 503
1966 1 500 499 502 504
1967 2 500 499 502 505
1968 1 500 499 502 503
1969 1 501 499 502 504
1970 2 501 499 502 505
1971 1 501 499 502 503
1972 1 785 784 787 788
1973 1 785 784 787 789
1974 2 785 784 787 790
1975 1 786 784 787 788
1976 1 786 784 787 789
1977 2 786 784 787 790
1978 2 781 784 787 788
1979 2 781 784 787 789
1980 3 781 784 787 790
1981 1 200 199 202 203
1982 1 200 199 202 204
1983 2 200 199 202 205
1984 1 201 199 202 203
1985 1 201 199 202 204
1986 2 201 199 202 205
1987 2 196 199 202 203
1988 2 196 199 202 204
1989 3 196 199 202 205
1990 1 746 745 748 749
1991 1 746 745 748 750
1992 2 746 745 748 751
1993 1 747 745 748 749
1994 1 747 745 748 750
1995 2 747 745 748 751
1996 2 742 745 748 749
1997 2 742 745 748 750
1998 3 742 745 748 751
1999 2 515 514 517 520
2000 1 515 514 517 518
2001 1 515 514 517 519
2002 2 516 514 517 520
2003 1 516 514 517 518
2004 1 516 514 517 519
2005 3 511 514 517 520
2006 2 511 514 517 518
2007 2 511 514 517 519
2008 1 662 661 664 665
2009 1 662 661 664 666
2010 2 662 661 664 667
2011 1 663 661 664 665
2012 1 663 661 664 666
2013 2 663 661 664 667
2014 1 512 511 514 515
2015 1 512 511 514 516
2016 2 512 511 514 517
2017 1 513 511 514 515
2018 1 513 511 514 516
2019 2 513 511 514 517
2020 2 508 511 514 515
2021 2 508 511 514 516
2022 3 508 511 514 517
2023 1 146 145 148 149
2024 1 146 145 148 150
2025 2 146 145 148 151
2026 1 147 145 148 149
2027 1 147 145 148 150
2028 2 147 145 148 151
2029 2 142 145 148 149
2030 2 142 145 148 150
2031 3 142 145 148 151
2032 1 792 790 793 794
2033 1 792 790 793 795
2034 2 792 790 793 796
2035 2 787 790 793 794
2036 2 787 790 793 795
2037 3 787 790 793 796
2038 1 791 790 793 794
2039 1 791 790 793 795
2040 2 791 790 793 796
2041 1 209 208 211 212
2042 1 209 208 211 213
2043 2 209 208 211 214
2044 1 210 208 211 212
2045 1 210 208 211 213
2046 2 210 208 211 214
2047 2 205 208 211 212
2048 2 205 208 211 213
2049 3 205 208 211 214
2050 1 152 151 154 155
2051 1 152 151 154 156
2052 2 152 151 154 157
2053 1 153 151 154 155
2054 1 153 151 154 156
2055 2 153 151 154 157
2056 2 148 151 154 155
2057 2 148 151 154 156
2058 3 148 151 154 157
2059 1 794 793 796 797
2060 1 794 793 796 798
2061 2 794 793 796 799
2062 1 795 793 796 797
2063 1 795 793 796 798
2064 2 795 793 796 799
2065 2 790 793 796 797
2066 2 790 793 796 798
2067 3 790 793 796 799
2068 1 1145 1144 1147 1148
2069 1 1145 1144 1147 1149
2070 2 1145 1144 1147 1150
2071 1 1146 1144 1147 1148
2072 1 1146 1144 1147 1149
2073 2 1146 1144 1147 1150
2074 2 1141 1144 1147 1148
2075 2 1141 1144 1147 1149
2076 3 1141 1144 1147 1150
2077 1 425 424 427 428
2078 1 425 424 427 429
2079 2 425 424 427 430
2080 1 426 424 427 428
2081 1 426 424 427 429
2082 2 426 424 427 430
2083 2 421 424 427 428
2084 2 421 424 427 429
2085 3 421 424 427 430
2086 1 408 406 409 410
2087 1 408 406 409 411
2088 2 408 406 409 412
2089 2 403 406 409 410
2090 2 403 406 409 411
2091 3 403 406 409 412
2092 1 407 406 409 410
2093 1 407 406 409 411
2094 2 407 406 409 412
2095 2 304 307 310 312
2096 3 304 307 310 313
2097 2 304 307 310 311
2098 1 308 307 310 312
2099 2 308 307 310 313
2100 1 308 307 310 311
2101 1 309 307 310 312
2102 2 309 307 310 313
2103 1 309 307 310 311
2104 1 401 400 403 404
2105 1 401 400 403 405
2106 2 401 400 403 406
2107 1 402 400 403 404
2108 1 402 400 403 405
2109 2 402 400 403 406
2110 2 397 400 403 404
2111 2 397 400 403 405
2112 3 397 400 403 406
2113 1 1176 1174 1177 1178
2114 1 1176 1174 1177 1179
2115 2 1176 1174 1177 1180
2116 2 1171 1174 1177 1178
2117 2 1171 1174 1177 1179
2118 3 1171 1174 1177 1180
2119 1 1175 1174 1177 1178
2120 1 1175 1174 1177 1179
2121 2 1175 1174 1177 1180
2122 2 433 436 439 440
2123 2 433 436 439 441
2124 3 433 436 439 442
2125 1 437 436 439 440
2126 1 437 436 439 441
2127 2 437 436 439 442
2128 1 438 436 439 440
2129 1 438 436 439 441
2130 2 438 436 439 442
2131 1 473 472 475 476
2132 1 473 472 475 477
2133 2 473 472 475 478
2134 1 474 472 475 476
2135 1 474 472 475 477
2136 2 474 472 475 478
2137 2 469 472 475 476
2138 2 469 472 475 477
2139 3 469 472 475 478
2140 2 491 490 493 496
2141 1 491 490 493 494
2142 1 491 490 493 495
2143 2 492 490 493 496
2144 1 492 490 493 494
2145 1 492 490 493 495
2146 3 487 490 493 496
2147 2 487 490 493 494
2148 2 487 490 493 495
2149 2 400 403 406 408
2150 3 400 403 406 409
2151 2 400 403 406 407
2152 1 404 403 406 408
2153 2 404 403 406 409
2154 1 404 403 406 407
2155 1 405 403 406 408
2156 2 405 403 406 409
2157 1 405 403 406 407
2158 2 466 469 472 473
2159 2 466 469 472 474
2160 3 466 469 472 475
2161 1 470 469 472 473
2162 1 470 469 472 474
2163 2 470 469 472 475
2164 1 471 469 472 473
2165 1 471 469 472 474
2166 2 471 469 472 475
2167 2 481 484 487 488
2168 2 481 484 487 489
2169 3 481 484 487 490
2170 1 485 484 487 488
2171 1 485 484 487 489
2172 2 485 484 487 490
2173 1 486 484 487 488
2174 1 486 484 487 489
2175 2 486 484 487 490
2176 1 488 487 490 491
2177 1 488 487 490 492
2178 2 488 487 490 493
2179 1 489 487 490 491
2180 1 489 487 490 492
2181 2 489 487 490 493
2182 2 484 487 490 491
2183 2 484 487 490 492
2184 3 484 487 490 493
2185 2 385 388 391 392
2186 2 385 388 391 393
2187 3 385 388 391 394
2188 1 389 388 391 392
2189 1 389 388 391 393
2190 2 389 388 391 394
2191 1 390 388 391 392
2192 1 390 388 391 393
2193 2 390 388 391 394
2194 1 482 481 484 485
2195 1 482 481 484 486
2196 2 482 481 484 487
2197 1 483 481 484 485
2198 1 483 481 484 486
2199 2 483 481 484 487
2200 1 434 433 436 437
2201 1 434 433 436 438
2202 2 434 433 436 439
2203 1 435 433 436 437
2204 1 435 433 436 438
2205 2 435 433 436 439
2206 2 430 433 436 437
2207 2 430 433 436 438
2208 3 430 433 436 439
2209 2 409 412 415 416
2210 2 409 412 415 417
2211 3 409 412 415 418
2212 1 413 412 415 416
2213 1 413 412 415 417
2214 2 413 412 415 418
2215 1 414 412 415 416
2216 1 414 412 415 417
2217 2 414 412 415 418
2218 2 394 397 400 401
2219 2 394 397 400 402
2220 3 394 397 400 403
2221 1 398 397 400 401
2222 1 398 397 400 402
2223 2 398 397 400 403
2224 1 399 397 400 401
2225 1 399 397 400 402
2226 2 399 397 400 403
2227 1 432 430 433 434
2228 1 432 430 433 435
2229 2 432 430 433 436
2230 2 427 430 433 434
2231 2 427 430 433 435
2232 3 427 430 433 436
2233 1 431 430 433 434
2234 1 431 430 433 435
2235 2 431 430 433 436
2236 1 410 409 412 413
2237 1 410 409 412 414
2238 2 410 409 412 415
2239 1 411 409 412 413
2240 1 411 409 412 414
2241 2 411 409 412 415
2242 2 406 409 412 413
2243 2 406 409 412 414
2244 3 406 409 412 415
2245 1 1008 1006 1009 1010
2246 1 1008 1006 1009 1011
2247 2 1008 1006 1009 1012
2248 2 1003 1006 1009 1010
2249 2 1003 1006 1009 1011
2250 3 1003 1006 1009 1012
2251 1 1007 1006 1009 1010
2252 1 1007 1006 1009 1011
2253 2 1007 1006 1009 1012
2254 1 392 391 394 395
2255 1 392 391 394 396
2256 2 392 391 394 397
2257 1 393 391 394 395
2258 1 393 391 394 396
2259 2 393 391 394 397
2260 2 388 391 394 395
2261 2 388 391 394 396
2262 3 388 391 394 397
2263 2 1163 1162 1165 1168
2264 1 1163 1162 1165 1166
2265 1 1163 1162 1165 1167
2266 2 1164 1162 1165 1168
2267 1 1164 1162 1165 1166
2268 1 1164 1162 1165 1167
2269 3 1159 1162 1165 1168
2270 2 1159 1162 1165 1166
2271 2 1159 1162 1165 1167
2272 1 416 415 418 419
2273 1 416 415 418 420
2274 1 417 415 418 419
2275 1 417 415 418 420
2276 2 412 415 418 419
2277 2 412 415 418 420
2278 2 467 466 469 472
2279 1 467 466 469 470
2280 1 467 466 469 471
2281 2 468 466 469 472
2282 1 468 466 469 470
2283 1 468 466 469 471
2284 3 463 466 469 472
2285 2 463 466 469 470
2286 2 463 466 469 471
2287 2 490 493 496 497
2288 2 490 493 496 498
2289 3 490 493 496 499
2290 1 494 493 496 497
2291 1 494 493 496 498
2292 2 494 493 496 499
2293 1 495 493 496 497
2294 1 495 493 496 498
2295 2 495 493 496 499
2296 2 1000 1003 1006 1008
2297 3 1000 1003 1006 1009
2298 2 1000 1003 1006 1007
2299 1 1004 1003 1006 1008
2300 2 1004 1003 1006 1009
2301 1 1004 1003 1006 1007
2302 1 1005 1003 1006 1008
2303 2 1005 1003 1006 1009
2304 1 1005 1003 1006 1007
2305 2 424 427 430 432
2306 3 424 427 430 433
2307 2 424 427 430 431
2308 1 428 427 430 432
2309 2 428 427 430 433
2310 1 428 427 430 431
2311 1 429 427 430 432
2312 2 429 427 430 433
2313 1 429 427 430 431
2314 2 395 394 397 400
2315 1 395 394 397 398
2316 1 395 394 397 399
2317 2 396 394 397 400
2318 1 396 394 397 398
2319 1 396 394 397 399
2320 3 391 394 397 400
2321 2 391 394 397 398
2322 2 391 394 397 399
2323 2 472 475 478 480
2324 2 472 475 478 479
2325 1 476 475 478 480
2326 1 476 475 478 479
2327 1 477 475 478 480
2328 1 477 475 478 479
2329 1 497 496 499 500
2330 1 497 496 499 501
2331 2 497 496 499 502
2332 1 498 496 499 500
2333 1 498 496 499 501
2334 2 498 496 499 502
2335 2 493 496 499 500
2336 2 493 496 499 501
2337 3 493 496 499 502
2338 2 1162 1165 1168 1169
2339 2 1162 1165 1168 1170
2340 3 1162 1165 1168 1171
2341 1 1166 1165 1168 1169
2342 1 1166 1165 1168 1170
2343 2 1166 1165 1168 1171
2344 1 1167 1165 1168 1169
2345 1 1167 1165 1168 1170
2346 2 1167 1165 1168 1171
2347 1 1169 1168 1171 1172
2348 1 1169 1168 1171 1173
2349 2 1169 1168 1171 1174
2350 1 1170 1168 1171 1172
2351 1 1170 1168 1171 1173
2352 2 1170 1168 1171 1174
2353 2 1165 1168 1171 1172
2354 2 1165 1168 1171 1173
2355 3 1165 1168 1171 1174
2356 2 1168 1171 1174 1176
2357 3 1168 1171 1174 1177
2358 2 1168 1171 1174 1175
2359 1 1172 1171 1174 1176
2360 2 1172 1171 1174 1177
2361 1 1172 1171 1174 1175
2362 1 1173 1171 1174 1176
2363 2 1173 1171 1174 1177
2364 1 1173 1171 1174 1175
2365 1 302 301 304 305
2366 1 302 301 304 306
2367 2 302 301 304 307
2368 1 303 301 304 305
2369 1 303 301 304 306
2370 2 303 301 304 307
2371 2 184 187 190 192
2372 3 184 187 190 193
2373 2 184 187 190 191
2374 1 188 187 190 192
2375 2 188 187 190 193
2376 1 188 187 190 191
2377 1 189 187 190 192
2378 2 189 187 190 193
2379 1 189 187 190 191
2380 1 182 181 184 185
2381 1 182 181 184 186
2382 2 182 181 184 187
2383 1 183 181 184 185
2384 1 183 181 184 186
2385 2 183 181 184 187
2386 1 386 385 388 389
2387 1 386 385 388 390
2388 2 386 385 388 391
2389 1 387 385 388 389
2390 1 387 385 388 390
2391 2 387 385 388 391
2392 2 382 385 388 389
2393 2 382 385 388 390
2394 3 382 385 388 391
2395 1 944 943 946 947
2396 1 944 943 946 948
2397 2 944 943 946 949
2398 1 945 943 946 947
2399 1 945 943 946 948
2400 2 945 943 946 949
2401 2 940 943 946 947
2402 2 940 943 946 948
2403 3 940 943 946 949
2404 2 803 802 805 808
2405 1 803 802 805 806
2406 1 803 802 805 807
2407 2 804 802 805 808
2408 1 804 802 805 806
2409 1 804 802 805 807
2410 3 799 802 805 808
2411 2 799 802 805 806
2412 2 799 802 805 807
2413 2 25 28 31 32
2414 2 25 28 31 33
2415 3 25 28 31 34
2416 1 29 28 31 32
2417 1 29 28 31 33
2418 2 29 28 31 34
2419 1 30 28 31 32
2420 1 30 28 31 33
2421 2 30 28 31 34
2422 1 809 808 811 812
2423 1 809 808 811 813
2424 2 809 808 811 814
2425 1 810 808 811 812
2426 1 810 808 811 813
2427 2 810 808 811 814
2428 2 805 808 811 812
2429 2 805 808 811 813
2430 3 805 808 811 814
2431 2 976 979 982 984
2432 3 976 979 982 985
2433 2 976 979 982 983
2434 1 980 979 982 984
2435 2 980 979 982 985
2436 1 980 979 982 983
2437 1 981 979 982 984
2438 2 981 979 982 985
2439 1 981 979 982 983
2440 2 232 235 238 240
2441 2 232 235 238 239
2442 1 236 235 238 240
2443 1 236 235 238 239
2444 1 237 235 238 240
2445 1 237 235 238 239
2446 1 26 25 28 29
2447 1 26 25 28 30
2448 2 26 25 28 31
2449 1 27 25 28 29
2450 1 27 25 28 30
2451 2 27 25 28 31
2452 2 22 25 28 29
2453 2 22 25 28 30
2454 3 22 25 28 31
2455 2 808 811 814 816
2456 3 808 811 814 817
2457 2 808 811 814 815
2458 1 812 811 814 816
2459 2 812 811 814 817
2460 1 812 811 814 815
2461 1 813 811 814 816
2462 2 813 811 814 817
2463 1 813 811 814 815
2464 2 970 973 976 977
2465 2 970 973 976 978
2466 3 970 973 976 979
2467 1 974 973 976 977
2468 1 974 973 976 978
2469 2 974 973 976 979
2470 1 975 973 976 977
2471 1 975 973 976 978
2472 2 975 973 976 979
2473 1 977 976 979 980
2474 1 977 976 979 981
2475 2 977 976 979 982
2476 1 978 976 979 980
2477 1 978 976 979 981
2478 2 978 976 979 982
2479 2 973 976 979 980
2480 2 973 976 979 981
2481 3 973 976 979 982
2482 1 8 7 10 11
2483 1 8 7 10 12
2484 2 8 7 10 13
2485 1 9 7 10 11
2486 1 9 7 10 12
2487 2 9 7 10 13
2488 2 4 7 10 11
2489 2 4 7 10 12
2490 3 4 7 10 13
2491 2 226 229 232 233
2492 2 226 229 232 234
2493 3 226 229 232 235
2494 1 230 229 232 233
2495 1 230 229 232 234
2496 2 230 229 232 235
2497 1 231 229 232 233
2498 1 231 229 232 234
2499 2 231 229 232 235
2500 2 10 13 16 17
2501 2 10 13 16 18
2502 3 10 13 16 19
2503 1 14 13 16 17
2504 1 14 13 16 18
2505 2 14 13 16 19
2506 1 15 13 16 17
2507 1 15 13 16 18
2508 2 15 13 16 19
2509 2 1024 1027 1030 1032
2510 3 1024 1027 1030 1033
2511 2 1024 1027 1030 1031
2512 1 1028 1027 1030 1032
2513 2 1028 1027 1030 1033
2514 1 1028 1027 1030 1031
2515 1 1029 1027 1030 1032
2516 2 1029 1027 1030 1033
2517 1 1029 1027 1030 1031
2518 1 1022 1021 1024 1025
2519 1 1022 1021 1024 1026
2520 2 1022 1021 1024 1027
2521 1 1023 1021 1024 1025
2522 1 1023 1021 1024 1026
2523 2 1023 1021 1024 1027
2524 1 800 799 802 803
2525 1 800 799 802 804
2526 2 800 799 802 805
2527 1 801 799 802 803
2528 1 801 799 802 804
2529 2 801 799 802 805
2530 2 796 799 802 803
2531 2 796 799 802 804
2532 3 796 799 802 805
2533 2 256 259 262 264
2534 3 256 259 262 265
2535 2 256 259 262 263
2536 1 260 259 262 264
2537 2 260 259 262 265
2538 1 260 259 262 263
2539 1 261 259 262 264
2540 2 261 259 262 265
2541 1 261 259 262 263
2542 2 227 226 229 232
2543 1 227 226 229 230
2544 1 227 226 229 231
2545 2 228 226 229 232
2546 1 228 226 229 230
2547 1 228 226 229 231
2548 3 223 226 229 232
2549 2 223 226 229 230
2550 2 223 226 229 231
2551 1 17 16 19 20
2552 1 17 16 19 21
2553 2 17 16 19 22
2554 1 18 16 19 20
2555 1 18 16 19 21
2556 2 18 16 19 22
2557 2 13 16 19 20
2558 2 13 16 19 21
2559 3 13 16 19 22
2560 2 947 946 949 952
2561 1 947 946 949 950
2562 1 947 946 949 951
2563 2 948 946 949 952
2564 1 948 946 949 950
2565 1 948 946 949 951
2566 3 943 946 949 952
2567 2 943 946 949 950
2568 2 943 946 949 951
2569 1 2 1 4 5
2570 1 2 1 4 6
2571 2 2 1 4 7
2572 1 3 1 4 5
2573 1 3 1 4 6
2574 2 3 1 4 7
2575 2 16 19 22 24
2576 3 16 19 22 25
2577 2 16 19 22 23
2578 1 20 19 22 24
2579 2 20 19 22 25
2580 1 20 19 22 23
2581 1 21 19 22 24
2582 2 21 19 22 25
2583 1 21 19 22 23
2584 2 11 10 13 16
2585 1 11 10 13 14
2586 1 11 10 13 15
2587 2 12 10 13 16
2588 1 12 10 13 14
2589 1 12 10 13 15
2590 3 7 10 13 16
2591 2 7 10 13 14
2592 2 7 10 13 15
2593 1 1025 1024 1027 1028
2594 1 1025 1024 1027 1029
2595 2 1025 1024 1027 1030
2596 1 1026 1024 1027 1028
2597 1 1026 1024 1027 1029
2598 2 1026 1024 1027 1030
2599 2 1021 1024 1027 1028
2600 2 1021 1024 1027 1029
2601 3 1021 1024 1027 1030
2602 2 946 949 952 953
2603 2 946 949 952 954
2604 3 946 949 952 955
2605 1 950 949 952 953
2606 1 950 949 952 954
2607 2 950 949 952 955
2608 1 951 949 952 953
2609 1 951 949 952 954
2610 2 951 949 952 955
2611 1 218 217 220 221
2612 1 218 217 220 222
2613 2 218 217 220 223
2614 1 219 217 220 221
2615 1 219 217 220 222
2616 2 219 217 220 223
2617 2 214 217 220 221
2618 2 214 217 220 222
2619 3 214 217 220 223
2620 1 984 982 985 986
2621 1 984 982 985 987
2622 2 984 982 985 988
2623 2 979 982 985 986
2624 2 979 982 985 987
2625 3 979 982 985 988
2626 1 983 982 985 986
2627 1 983 982 985 987
2628 2 983 982 985 988
2629 1 224 223 226 227
2630 1 224 223 226 228
2631 2 224 223 226 229
2632 1 225 223 226 227
2633 1 225 223 226 228
2634 2 225 223 226 229
2635 2 220 223 226 227
2636 2 220 223 226 228
2637 3 220 223 226 229
2638 2 802 805 808 809
2639 2 802 805 808 810
2640 3 802 805 808 811
2641 1 806 805 808 809
2642 1 806 805 808 810
2643 2 806 805 808 811
2644 1 807 805 808 809
2645 1 807 805 808 810
2646 2 807 805 808 811
2647 2 1 4 7 8
2648 2 1 4 7 9
2649 3 1 4 7 10
2650 1 5 4 7 8
2651 1 5 4 7 9
2652 2 5 4 7 10
2653 1 6 4 7 8
2654 1 6 4 7 9
2655 2 6 4 7 10
2656 1 1032 1030 1033 1034
2657 1 1032 1030 1033 1035
2658 2 1032 1030 1033 1036
2659 2 1027 1030 1033 1034
2660 2 1027 1030 1033 1035
2661 3 1027 1030 1033 1036
2662 1 1031 1030 1033 1034
2663 1 1031 1030 1033 1035
2664 2 1031 1030 1033 1036
2665 2 971 970 973 976
2666 1 971 970 973 974
2667 1 971 970 973 975
2668 2 972 970 973 976
2669 1 972 970 973 974
2670 1 972 970 973 975
2671 3 967 970 973 976
2672 2 967 970 973 974
2673 2 967 970 973 975
2674 1 24 22 25 26
2675 1 24 22 25 27
2676 2 24 22 25 28
2677 2 19 22 25 26
2678 2 19 22 25 27
2679 3 19 22 25 28
2680 1 23 22 25 26
2681 1 23 22 25 27
2682 2 23 22 25 28
2683 1 216 214 217 218
2684 1 216 214 217 219
2685 2 216 214 217 220
2686 2 211 214 217 218
2687 2 211 214 217 219
2688 3 211 214 217 220
2689 1 215 214 217 218
2690 1 215 214 217 219
2691 2 215 214 217 220
2692 1 968 967 970 971
2693 1 968 967 970 972
2694 2 968 967 970 973
2695 1 969 967 970 971
2696 1 969 967 970 972
2697 2 969 967 970 973
2698 2 964 967 970 971
2699 2 964 967 970 972
2700 3 964 967 970 973
2701 2 937 940 943 944
2702 2 937 940 943 945
2703 3 937 940 943 946
2704 1 941 940 943 944
2705 1 941 940 943 945
2706 2 941 940 943 946
2707 1 942 940 943 944
2708 1 942 940 943 945
2709 2 942 940 943 946
2710 1 1034 1033 1036 1037
2711 1 1034 1033 1036 1038
2712 2 1034 1033 1036 1039
2713 1 1035 1033 1036 1037
2714 1 1035 1033 1036 1038
2715 2 1035 1033 1036 1039
2716 2 1030 1033 1036 1037
2717 2 1030 1033 1036 1038
2718 3 1030 1033 1036 1039
2719 2 1033 1036 1039 1040
2720 2 1033 1036 1039 1041
2721 3 1033 1036 1039 1042
2722 1 1037 1036 1039 1040
2723 1 1037 1036 1039 1041
2724 2 1037 1036 1039 1042
2725 1 1038 1036 1039 1040
2726 1 1038 1036 1039 1041
2727 2 1038 1036 1039 1042
2728 1 938 937 940 941
2729 1 938 937 940 942
2730 2 938 937 940 943
2731 1 939 937 940 941
2732 1 939 937 940 942
2733 2 939 937 940 943
2734 2 934 937 940 941
2735 2 934 937 940 942
2736 3 934 937 940 943
2737 2 217 220 223 224
2738 2 217 220 223 225
2739 3 217 220 223 226
2740 1 221 220 223 224
2741 1 221 220 223 225
2742 2 221 220 223 226
2743 1 222 220 223 224
2744 1 222 220 223 225
2745 2 222 220 223 226
2746 1 233 232 235 236
2747 1 233 232 235 237
2748 2 233 232 235 238
2749 1 234 232 235 236
2750 1 234 232 235 237
2751 2 234 232 235 238
2752 2 229 232 235 236
2753 2 229 232 235 237
2754 3 229 232 235 238
2755 1 986 985 988 989
2756 1 986 985 988 990
2757 2 986 985 988 991
2758 1 987 985 988 989
2759 1 987 985 988 990
2760 2 987 985 988 991
2761 2 982 985 988 989
2762 2 982 985 988 990
2763 3 982 985 988 991
2764 2 250 253 256 257
2765 2 250 253 256 258
2766 3 250 253 256 259
2767 1 254 253 256 257
2768 1 254 253 256 258
2769 2 254 253 256 259
2770 1 255 253 256 257
2771 1 255 253 256 258
2772 2 255 253 256 259
2773 2 625 628 631 632
2774 2 625 628 631 633
2775 3 625 628 631 634
2776 1 629 628 631 632
2777 1 629 628 631 633
2778 2 629 628 631 634
2779 1 630 628 631 632
2780 1 630 628 631 633
2781 2 630 628 631 634
2782 1 770 769 772 773
2783 1 770 769 772 774
2784 2 770 769 772 775
2785 1 771 769 772 773
2786 1 771 769 772 774
2787 2 771 769 772 775
2788 2 766 769 772 773
2789 2 766 769 772 774
2790 3 766 769 772 775
2791 2 961 964 967 968
2792 2 961 964 967 969
2793 3 961 964 967 970
2794 1 965 964 967 968
2795 1 965 964 967 969
2796 2 965 964 967 970
2797 1 966 964 967 968
2798 1 966 964 967 969
2799 2 966 964 967 970
2800 2 587 586 589 592
2801 1 587 586 589 590
2802 1 587 586 589 591
2803 2 588 586 589 592
2804 1 588 586 589 590
2805 1 588 586 589 591
2806 3 583 586 589 592
2807 2 583 586 589 590
2808 2 583 586 589 591
2809 1 672 670 673 674
2810 1 672 670 673 675
2811 2 672 670 673 676
2812 2 667 670 673 674
2813 2 667 670 673 675
2814 3 667 670 673 676
2815 1 671 670 673 674
2816 1 671 670 673 675
2817 2 671 670 673 676
2818 1 752 751 754 755
2819 1 752 751 754 756
2820 2 752 751 754 757
2821 1 753 751 754 755
2822 1 753 751 754 756
2823 2 753 751 754 757
2824 2 748 751 754 755
2825 2 748 751 754 756
2826 3 748 751 754 757
2827 1 584 583 586 587
2828 1 584 583 586 588
2829 2 584 583 586 589
2830 1 585 583 586 587
2831 1 585 583 586 588
2832 2 585 583 586 589
2833 2 580 583 586 587
2834 2 580 583 586 588
2835 3 580 583 586 589
2836 2 760 763 766 768
2837 3 760 763 766 769
2838 2 760 763 766 767
2839 1 764 763 766 768
2840 2 764 763 766 769
2841 1 764 763 766 767
2842 1 765 763 766 768
2843 2 765 763 766 769
2844 1 765 763 766 767
2845 1 962 961 964 965
2846 1 962 961 964 966
2847 2 962 961 964 967
2848 1 963 961 964 965
2849 1 963 961 964 966
2850 2 963 961 964 967
2851 2 754 757 760 761
2852 2 754 757 760 762
2853 3 754 757 760 763
2854 1 758 757 760 761
2855 1 758 757 760 762
2856 2 758 757 760 763
2857 1 759 757 760 761
2858 1 759 757 760 762
2859 2 759 757 760 763
2860 2 586 589 592 593
2861 2 586 589 592 594
2862 3 586 589 592 595
2863 1 590 589 592 593
2864 1 590 589 592 594
2865 2 590 589 592 595
2866 1 591 589 592 593
2867 1 591 589 592 594
2868 2 591 589 592 595
2869 1 768 766 769 770
2870 1 768 766 769 771
2871 2 768 766 769 772
2872 2 763 766 769 770
2873 2 763 766 769 771
2874 3 763 766 769 772
2875 1 767 766 769 770
2876 1 767 766 769 771
2877 2 767 766 769 772
2878 1 761 760 763 764
2879 1 761 760 763 765
2880 2 761 760 763 766
2881 1 762 760 763 764
2882 1 762 760 763 765
2883 2 762 760 763 766
2884 2 757 760 763 764
2885 2 757 760 763 765
2886 3 757 760 763 766
2887 2 635 634 637 640
2888 1 635 634 637 638
2889 1 635 634 637 639
2890 2 636 634 637 640
2891 1 636 634 637 638
2892 1 636 634 637 639
2893 3 631 634 637 640
2894 2 631 634 637 638
2895 2 631 634 637 639
2896 2 208 211 214 216
2897 3 208 211 214 217
2898 2 208 211 214 215
2899 1 212 211 214 216
2900 2 212 211 214 217
2901 1 212 211 214 215
2902 1 213 211 214 216
2903 2 213 211 214 217
2904 1 213 211 214 215
2905 2 640 643 646 648
2906 3 640 643 646 649
2907 2 640 643 646 647
2908 1 644 643 646 648
2909 2 644 643 646 649
2910 1 644 643 646 647
2911 1 645 643 646 648
2912 2 645 643 646 649
2913 1 645 643 646 647
2914 2 673 676 679 680
2915 2 673 676 679 681
2916 3 673 676 679 682
2917 1 677 676 679 680
2918 1 677 676 679 681
2919 2 677 676 679 682
2920 1 678 676 679 680
2921 1 678 676 679 681
2922 2 678 676 679 682
2923 1 674 673 676 677
2924 1 674 673 676 678
2925 2 674 673 676 679
2926 1 675 673 676 677
2927 1 675 673 676 678
2928 2 675 673 676 679
2929 2 670 673 676 677
2930 2 670 673 676 678
2931 3 670 673 676 679
2932 1 641 640 643 644
2933 1 641 640 643 645
2934 2 641 640 643 646
2935 1 642 640 643 644
2936 1 642 640 643 645
2937 2 642 640 643 646
2938 2 637 640 643 644
2939 2 637 640 643 645
2940 3 637 640 643 646
2941 2 592 595 598 600
2942 2 592 595 598 599
2943 1 596 595 598 600
2944 1 596 595 598 599
2945 1 597 595 598 600
2946 1 597 595 598 599
2947 1 632 631 634 635
2948 1 632 631 634 636
2949 2 632 631 634 637
2950 1 633 631 634 635
2951 1 633 631 634 636
2952 2 633 631 634 637
2953 2 628 631 634 635
2954 2 628 631 634 636
2955 3 628 631 634 637
2956 2 634 637 640 641
2957 2 634 637 640 642
2958 3 634 637 640 643
2959 1 638 637 640 641
2960 1 638 637 640 642
2961 2 638 637 640 643
2962 1 639 637 640 641
2963 1 639 637 640 642
2964 2 639 637 640 643
2965 2 755 754 757 760
2966 1 755 754 757 758
2967 1 755 754 757 759
2968 2 756 754 757 760
2969 1 756 754 757 758
2970 1 756 754 757 759
2971 3 751 754 757 760
2972 2 751 754 757 758
2973 2 751 754 757 759
2974 1 626 625 628 629
2975 1 626 625 628 630
2976 2 626 625 628 631
2977 1 627 625 628 629
2978 1 627 625 628 630
2979 2 627 625 628 631
2980 2 622 625 628 629
2981 2 622 625 628 630
2982 3 622 625 628 631
2983 2 769 772 775 776
2984 2 769 772 775 777
2985 3 769 772 775 778
2986 1 773 772 775 776
2987 1 773 772 775 777
2988 2 773 772 775 778
2989 1 774 772 775 776
2990 1 774 772 775 777
2991 2 774 772 775 778
2992 2 664 667 670 672
2993 3 664 667 670 673
2994 2 664 667 670 671
2995 1 668 667 670 672
2996 2 668 667 670 673
2997 1 668 667 670 671
2998 1 669 667 670 672
2999 2 669 667 670 673
3000 1 669 667 670 671
3001 1 593 592 595 596
3002 1 593 592 595 597
3003 2 593 592 595 598
3004 1 594 592 595 596
3005 1 594 592 595 597
3006 2 594 592 595 598
3007 2 589 592 595 596
3008 2 589 592 595 597
3009 3 589 592 595 598
3010 2 121 124 127 128
3011 2 121 124 127 129
3012 3 121 124 127 130
3013 1 125 124 127 128
3014 1 125 124 127 129
3015 2 125 124 127 130
3016 1 126 124 127 128
3017 1 126 124 127 129
3018 2 126 124 127 130
3019 1 122 121 124 125
3020 1 122 121 124 126
3021 2 122 121 124 127
3022 1 123 121 124 125
3023 1 123 121 124 126
3024 2 123 121 124 127
3025 2 442 445 448 449
3026 2 442 445 448 450
3027 3 442 445 448 451
3028 1 446 445 448 449
3029 1 446 445 448 450
3030 2 446 445 448 451
3031 1 447 445 448 449
3032 1 447 445 448 450
3033 2 447 445 448 451
3034 1 776 775 778 779
3035 1 776 775 778 780
3036 1 777 775 778 779
3037 1 777 775 778 780
3038 2 772 775 778 779
3039 2 772 775 778 780
3040 1 440 439 442 443
3041 1 440 439 442 444
3042 2 440 439 442 445
3043 1 441 439 442 443
3044 1 441 439 442 444
3045 2 441 439 442 445
3046 2 436 439 442 443
3047 2 436 439 442 444
3048 3 436 439 442 445
3049 1 656 655 658 659
3050 1 656 655 658 660
3051 1 657 655 658 659
3052 1 657 655 658 660
3053 2 652 655 658 659
3054 2 652 655 658 660
3055 1 312 310 313 314
3056 1 312 310 313 315
3057 2 312 310 313 316
3058 2 307 310 313 314
3059 2 307 310 313 315
3060 3 307 310 313 316
3061 1 311 310 313 314
3062 1 311 310 313 315
3063 2 311 310 313 316
3064 1 305 304 307 308
3065 1 305 304 307 309
3066 2 305 304 307 310
3067 1 306 304 307 308
3068 1 306 304 307 309
3069 2 306 304 307 310
3070 2 301 304 307 308
3071 2 301 304 307 309
3072 3 301 304 307 310
3073 2 443 442 445 448
3074 1 443 442 445 446
3075 1 443 442 445 447
3076 2 444 442 445 448
3077 1 444 442 445 446
3078 1 444 442 445 447
3079 3 439 442 445 448
3080 2 439 442 445 446
3081 2 439 442 445 447
3082 2 376 379 382 384
3083 3 376 379 382 385
3084 2 376 379 382 383
3085 1 380 379 382 384
3086 2 380 379 382 385
3087 1 380 379 382 383
3088 1 381 379 382 384
3089 2 381 379 382 385
3090 1 381 379 382 383
3091 2 457 460 463 464
3092 2 457 460 463 465
3093 3 457 460 463 466
3094 1 461 460 463 464
3095 1 461 460 463 465
3096 2 461 460 463 466
3097 1 462 460 463 464
3098 1 462 460 463 465
3099 2 462 460 463 466
3100 1 368 367 370 371
3101 1 368 367 370 372
3102 2 368 367 370 373
3103 1 369 367 370 371
3104 1 369 367 370 372
3105 2 369 367 370 373
3106 2 364 367 370 371
3107 2 364 367 370 372
3108 3 364 367 370 373
3109 2 1192 1195 1198 1200
3110 2 1192 1195 1198 1199
3111 1 1196 1195 1198 1200
3112 1 1196 1195 1198 1199
3113 1 1197 1195 1198 1200
3114 1 1197 1195 1198 1199
3115 1 458 457 460 461
3116 1 458 457 460 462
3117 2 458 457 460 463
3118 1 459 457 460 461
3119 1 459 457 460 462
3120 2 459 457 460 463
3121 2 454 457 460 461
3122 2 454 457 460 462
3123 3 454 457 460 463
3124 1 1193 1192 1195 1196
3125 1 1193 1192 1195 1197
3126 2 1193 1192 1195 1198
3127 1 1194 1192 1195 1196
3128 1 1194 1192 1195 1197
3129 2 1194 1192 1195 1198
3130 2 1189 1192 1195 1196
3131 2 1189 1192 1195 1197
3132 3 1189 1192 1195 1198
3133 1 377 376 379 380
3134 1 377 376 379 381
3135 2 377 376 379 382
3136 1 378 376 379 380
3137 1 378 376 379 381
3138 2 378 376 379 382
3139 2 373 376 379 380
3140 2 373 376 379 381
3141 3 373 376 379 382
3142 1 449 448 451 452
3143 1 449 448 451 453
3144 2 449 448 451 454
3145 1 450 448 451 452
3146 1 450 448 451 453
3147 2 450 448 451 454
3148 2 445 448 451 452
3149 2 445 448 451 453
3150 3 445 448 451 454
3151 1 384 382 385 386
3152 1 384 382 385 387
3153 2 384 382 385 388
3154 2 379 382 385 386
3155 2 379 382 385 387
3156 3 379 382 385 388
3157 1 383 382 385 386
3158 1 383 382 385 387
3159 2 383 382 385 388
3160 2 1187 1186 1189 1192
3161 1 1187 1186 1189 1190
3162 1 1187 1186 1189 1191
3163 2 1188 1186 1189 1192
3164 1 1188 1186 1189 1190
3165 1 1188 1186 1189 1191
3166 3 1183 1186 1189 1192
3167 2 1183 1186 1189 1190
3168 2 1183 1186 1189 1191
3169 2 371 370 373 376
3170 1 371 370 373 374
3171 1 371 370 373 375
3172 2 372 370 373 376
3173 1 372 370 373 374
3174 1 372 370 373 375
3175 3 367 370 373 376
3176 2 367 370 373 374
3177 2 367 370 373 375
3178 1 456 454 457 458
3179 1 456 454 457 459
3180 2 456 454 457 460
3181 2 451 454 457 458
3182 2 451 454 457 459
3183 3 451 454 457 460
3184 1 455 454 457 458
3185 1 455 454 457 459
3186 2 455 454 457 460
3187 2 448 451 454 456
3188 3 448 451 454 457
3189 2 448 451 454 455
3190 1 452 451 454 456
3191 2 452 451 454 457
3192 1 452 451 454 455
3193 1 453 451 454 456
3194 2 453 451 454 457
3195 1 453 451 454 455
3196 2 1177 1180 1183 1184
3197 2 1177 1180 1183 1185
3198 3 1177 1180 1183 1186
3199 1 1181 1180 1183 1184
3200 1 1181 1180 1183 1185
3201 2 1181 1180 1183 1186
3202 1 1182 1180 1183 1184
3203 1 1182 1180 1183 1185
3204 2 1182 1180 1183 1186
3205 1 1184 1183 1186 1187
3206 1 1184 1183 1186 1188
3207 2 1184 1183 1186 1189
3208 1 1185 1183 1186 1187
3209 1 1185 1183 1186 1188
3210 2 1185 1183 1186 1189
3211 2 1180 1183 1186 1187
3212 2 1180 1183 1186 1188
3213 3 1180 1183 1186 1189
3214 2 1186 1189 1192 1193
3215 2 1186 1189 1192 1194
3216 3 1186 1189 1192 1195
3217 1 1190 1189 1192 1193
3218 1 1190 1189 1192 1194
3219 2 1190 1189 1192 1195
3220 1 1191 1189 1192 1193
3221 1 1191 1189 1192 1194
3222 2 1191 1189 1192 1195
3223 2 370 373 376 377
3224 2 370 373 376 378
3225 3 370 373 376 379
3226 1 374 373 376 377
3227 1 374 373 376 378
3228 2 374 373 376 379
3229 1 375 373 376 377
3230 1 375 373 376 378
3231 2 375 373 376 379
3232 2 361 364 367 368
3233 2 361 364 367 369
3234 3 361 364 367 370
3235 1 365 364 367 368
3236 1 365 364 367 369
3237 2 365 364 367 370
3238 1 366 364 367 368
3239 1 366 364 367 369
3240 2 366 364 367 370
3241 1 464 463 466 467
3242 1 464 463 466 468
3243 2 464 463 466 469
3244 1 465 463 466 467
3245 1 465 463 466 468
3246 2 465 463 466 469
3247 2 460 463 466 467
3248 2 460 463 466 468
3249 3 460 463 466 469
3250 1 1178 1177 1180 1181
3251 1 1178 1177 1180 1182
3252 2 1178 1177 1180 1183
3253 1 1179 1177 1180 1181
3254 1 1179 1177 1180 1182
3255 2 1179 1177 1180 1183
3256 2 1174 1177 1180 1181
3257 2 1174 1177 1180 1182
3258 3 1174 1177 1180 1183
3259 2 649 652 655 656
3260 2 649 652 655 657
3261 3 649 652 655 658
3262 1 653 652 655 656
3263 1 653 652 655 657
3264 2 653 652 655 658
3265 1 654 652 655 656
3266 1 654 652 655 657
3267 2 654 652 655 658
3268 1 650 649 652 653
3269 1 650 649 652 654
3270 2 650 649 652 655
3271 1 651 649 652 653
3272 1 651 649 652 654
3273 2 651 649 652 655
3274 2 646 649 652 653
3275 2 646 649 652 654
3276 3 646 649 652 655
3277 1 648 646 649 650
3278 1 648 646 649 651
3279 2 648 646 649 652
3280 2 643 646 649 650
3281 2 643 646 649 651
3282 3 643 646 649 652
3283 1 647 646 649 650
3284 1 647 646 649 651
3285 2 647 646 649 652
3286 1 362 361 364 365
3287 1 362 361 364 366
3288 2 362 361 364 367
3289 1 363 361 364 365
3290 1 363 361 364 366
3291 2 363 361 364 367
3292 1 32 31 34 35
3293 1 32 31 34 36
3294 2 32 31 34 37
3295 1 33 31 34 35
3296 1 33 31 34 36
3297 2 33 31 34 37
3298 2 28 31 34 35
3299 2 28 31 34 36
3300 3 28 31 34 37
