LAMMPS data file – polyethylene (20 chains × 10 monomers, OPLS-AA, density 0.90 g/cm³)

   1200 atoms
   1180 bonds
   2280 angles
   3300 dihedrals

   2 atom types
   2 bond types
   3 angle types
   3 dihedral types

     0.000000000        21.794343532 xlo xhi
     0.000000000        21.794343532 ylo yhi
     0.000000000        21.794343532 zlo zhi

Masses

   1  12.011000 # CT  (CT_2)
   2  1.008000 # HC  (HC_1)

Pair Coeffs # lj/cut/coul/long

   1   0.0660000000   3.5000000000 # CT  (CT_2)
   2   0.0300000000   2.5000000000 # HC  (HC_1)

Bond Coeffs # harmonic

   1   340.0000     1.0900 # CT-HC
   2   268.0000     1.5290 # CT-CT

Angle Coeffs # harmonic

   1    33.0000   107.8000 # HC-CT-HC
   2    37.5000   110.7000 # HC-CT-CT
   3    58.3500   112.7000 # CT-CT-CT

Dihedral Coeffs # opls

  1     0.000000   -0.000000  0.150000   -0.000000 # HC-CT-CT-HC
  2     0.000000   -0.000000  0.150000   -0.000000 # HC-CT-CT-CT
  3     0.650000   -0.025000  0.100000   -0.000000 # CT-CT-CT-CT

Atoms # full

      1      1   1   -0.120000         3.791009202        16.894444069        11.849239275   0   0   0 # CT
      2      1   2    0.060000         3.095522430        16.138129513        12.213088751   0   0   0 # HC
      3      1   2    0.060000         3.843199908        15.868291210        12.213088751   0   0   0 # HC
      4      1   1   -0.120000         2.911022874        18.035919608        12.359629963   0   0   0 # CT
      5      1   2    0.060000         2.841929685        18.830797514        11.617002703   0   0   0 # HC
      6      1   2    0.060000         3.509889728        18.924608316        12.558855643   0   0   0 # HC
      7      1   1   -0.120000         2.617277401        17.828633224        13.845761502   0   0   0 # CT
      8      1   2    0.060000         2.335546789        16.794155186        14.042187187   0   0   0 # HC
      9      1   2    0.060000         2.271317837        18.755604440        14.303075775   0   0   0 # HC
      10      1   1   -0.120000         3.767518558        17.143962755        14.584688175   0   0   0 # CT
      11      1   2    0.060000         4.728775632        17.467881368        14.185737588   0   0   0 # HC
      12      1   2    0.060000         4.193551264        17.809519613        15.335441266   0   0   0 # HC
      13      1   1   -0.120000         4.151476946        15.858188442        13.851747951   0   0   0 # CT
      14      1   2    0.060000         3.530719830        15.719200380        12.966624840   0   0   0 # HC
      15      1   2    0.060000         3.331787587        15.140196271        13.878141066   0   0   0 # HC
      16      1   1   -0.120000         5.495354795        15.968736554        13.130906468   0   0   0 # CT
      17      1   2    0.060000         5.646904194        16.979142282        12.751152542   0   0   0 # HC
      18      1   2    0.060000         6.256159296        15.378336544        13.641498615   0   0   0 # HC
      19      1   1   -0.120000         5.348610582        15.459619968        11.696644484   0   0   0 # CT
      20      1   2    0.060000         4.373637416        15.728556975        11.290196195   0   0   0 # HC
      21      1   2    0.060000         6.193988664        14.828047782        11.423601498   0   0   0 # HC
      22      1   1   -0.120000         6.571619977        15.768934728        10.832692287   0   0   0 # CT
      23      1   2    0.060000         6.408893764        15.445372059         9.804622553   0   0   0 # HC
      24      1   2    0.060000         6.851504221        14.900652991        10.236159275   0   0   0 # HC
      25      1   1   -0.120000         7.728997171        14.857175961        11.241366953   0   0   0 # CT
      26      1   2    0.060000         8.593837309        15.020676725        10.598390254   0   0   0 # HC
      27      1   2    0.060000         8.674562528        15.398659915        11.213060016   0   0   0 # HC
      28      1   1   -0.120000         7.940326286        13.698764974        10.266038808   0   0   0 # CT
      29      1   2    0.060000         8.416310347        14.048394174         9.349906397   0   0   0 # HC
      30      1   2    0.060000         7.216298854        12.904633308        10.448354947   0   0   0 # HC
      31      1   1   -0.120000         9.247091062        12.979903811        10.602855451   0   0   0 # CT
      32      1   2    0.060000         9.972861809        13.103092416         9.799001365   0   0   0 # HC
      33      1   2    0.060000         9.077110323        11.910701485        10.729397667   0   0   0 # HC
      34      1   1   -0.120000         9.610453680        13.079715130        12.084694278   0   0   0 # CT
      35      1   2    0.060000         9.318502845        12.173208363        12.614892536   0   0   0 # HC
      36      1   2    0.060000         8.736012862        13.345262704        12.678779913   0   0   0 # HC
      37      1   1   -0.120000        10.944188962        13.812118177        12.234950635   0   0   0 # CT
      38      1   2    0.060000        10.784223739        14.884157521        12.350027883   0   0   0 # HC
      39      1   2    0.060000        11.101684989        14.500072985        11.404280313   0   0   0 # HC
      40      1   1   -0.120000        12.045662170        12.920367308        12.808865402   0   0   0 # CT
      41      1   2    0.060000        12.571246481        12.395526278        12.011116679   0   0   0 # HC
      42      1   2    0.060000        13.014427617        13.416013360        12.746187666   0   0   0 # HC
      43      1   1   -0.120000        11.547624787        12.256572861        14.093068150   0   0   0 # CT
      44      1   2    0.060000        12.309205954        12.303582031        14.871453828   0   0   0 # HC
      45      1   2    0.060000        10.586328255        12.672906660        14.394191290   0   0   0 # HC
      46      1   1   -0.120000        11.165759320        13.270741319        15.171716426   0   0   0 # CT
      47      1   2    0.060000        10.540249786        14.059877110        14.754460478   0   0   0 # HC
      48      1   2    0.060000        12.042004576        13.569745353        15.746947544   0   0   0 # HC
      49      1   1   -0.120000         9.829643181        13.920766606        14.811020170   0   0   0 # CT
      50      1   2    0.060000         9.215686857        13.238698072        14.222853401   0   0   0 # HC
      51      1   2    0.060000         9.988601096        14.873482758        14.305882253   0   0   0 # HC
      52      1   1   -0.120000         8.630319388        13.150641739        15.364528190   0   0   0 # CT
      53      1   2    0.060000         8.572654664        13.254257215        16.448058814   0   0   0 # HC
      54      1   2    0.060000         7.696669906        13.638724055        15.084931520   0   0   0 # HC
      55      1   1   -0.120000         7.455748759        14.109185216        15.563070983   0   0   0 # CT
      56      1   2    0.060000         7.456708833        14.883786664        14.796199628   0   0   0 # HC
      57      1   2    0.060000         6.779023680        14.071345039        14.709425102   0   0   0 # HC
      58      1   1   -0.120000         7.857717091        15.575834218        15.404315940   0   0   0 # CT
      59      1   2    0.060000         8.925949907        15.663259917        15.205984405   0   0   0 # HC
      60      1   2    0.060000         8.726705148        15.806057452        16.020722477   0   0   0 # HC
      61      2   1   -0.120000        17.384026929         6.357295218        14.352270062   0   0   0 # CT
      62      2   2    0.060000        18.100725223         5.621049937        14.716119539   0   0   0 # HC
      63      2   2    0.060000        17.748418418         7.317988926        14.716119539   0   0   0 # HC
      64      2   1   -0.120000        16.581958542         5.159785866        14.862660750   0   0   0 # CT
      65      2   2    0.060000        15.537808609         5.238120156        14.559816473   0   0   0 # HC
      66      2   2    0.060000        17.243935769         4.329941053        15.110135468   0   0   0 # HC
      67      2   1   -0.120000        15.251545154         5.644945796        15.439255113   0   0   0 # CT
      68      2   2    0.060000        15.074311236         5.206194360        16.421184497   0   0   0 # HC
      69      2   2    0.060000        15.358849139         6.639847755        15.871407801   0   0   0 # HC
      70      2   1   -0.120000        14.622579058         6.765126846        14.610136867   0   0   0 # CT
      71      2   2    0.060000        14.179902323         6.366754691        13.697209195   0   0   0 # HC
      72      2   2    0.060000        15.017693971         7.735462494        14.910857559   0   0   0 # HC
      73      2   1   -0.120000        15.550328922         7.123022239        13.448658466   0   0   0 # CT
      74      2   2    0.060000        16.502494192         6.600576945        13.541028438   0   0   0 # HC
      75      2   2    0.060000        16.088250996         8.048052062        13.656166702   0   0   0 # HC
      76      2   1   -0.120000        15.168828981         8.440599656        12.773167129   0   0   0 # CT
      77      2   2    0.060000        14.093647696         8.608454370        12.835697120   0   0   0 # HC
      78      2   2    0.060000        15.208247216         9.264459453        13.485768867   0   0   0 # HC
      79      2   1   -0.120000        16.250205435         8.828783875        11.764316805   0   0   0 # CT
      80      2   2    0.060000        17.095845423         9.297833487        12.267293418   0   0   0 # HC
      81      2   2    0.060000        15.886782847         8.706914750        10.743938474   0   0   0 # HC
      82      2   1   -0.120000        17.301893846         7.734938123        11.576449946   0   0   0 # CT
      83      2   2    0.060000        17.428018260         7.499123378        10.519764544   0   0   0 # HC
      84      2   2    0.060000        17.858530066         7.573023846        12.499510012   0   0   0 # HC
      85      2   1   -0.120000        16.746917599         6.401661960        12.078662090   0   0   0 # CT
      86      2   2    0.060000        15.712163326         6.512628418        12.402807178   0   0   0 # HC
      87      2   2    0.060000        17.465538507         5.598759042        11.914251335   0   0   0 # HC
      88      2   1   -0.120000        15.919427842         5.670949161        11.020758263   0   0   0 # CT
      89      2   2    0.060000        14.944192539         5.391739831        11.419579342   0   0   0 # HC
      90      2   2    0.060000        16.370585266         4.709612840        10.775015600   0   0   0 # HC
      91      2   1   -0.120000        15.643206085         6.612938688         9.848496230   0   0   0 # CT
      92      2   2    0.060000        14.803942982         7.271304062        10.072756079   0   0   0 # HC
      93      2   2    0.060000        15.232293383         6.063670175         9.001410135   0   0   0 # HC
      94      2   1   -0.120000        16.424195802         7.923653878         9.948104218   0   0   0 # CT
      95      2   2    0.060000        15.778615446         8.774360306         9.729873657   0   0   0 # HC
      96      2   2    0.060000        17.186660250         7.977844522         9.171051234   0   0   0 # HC
      97      2   1   -0.120000        15.611805915         9.051516995         9.311088943   0   0   0 # CT
      98      2   2    0.060000        14.582493105         8.736070088         9.140477141   0   0   0 # HC
      99      2   2    0.060000        16.227636479         9.627113130         8.620044946   0   0   0 # HC
      100      2   1   -0.120000        16.104143049        10.439053020         9.723628547   0   0   0 # CT
      101      2   2    0.060000        16.955760339        10.742485308         9.114714072   0   0   0 # HC
      102      2   2    0.060000        15.439822730        10.878028496        10.467993408   0   0   0 # HC
      103      2   1   -0.120000        16.268488561        10.491468314        11.242866576   0   0   0 # CT
      104      2   2    0.060000        15.307746657        10.661945778        11.728677680   0   0   0 # HC
      105      2   2    0.060000        15.923975817         9.563821337        11.699902740   0   0   0 # HC
      106      2   1   -0.120000        16.801197527        11.838395221        11.732611473   0   0   0 # CT
      107      2   2    0.060000        16.273816397        12.157474560        12.631587289   0   0   0 # HC
      108      2   2    0.060000        17.883052037        11.892130741        11.610942606   0   0   0 # HC
      109      2   1   -0.120000        15.809024520        12.942964662        11.367426489   0   0   0 # CT
      110      2   2    0.060000        14.851316440        12.517111005        11.068187624   0   0   0 # HC
      111      2   2    0.060000        14.858567503        12.791739367        11.879151385   0   0   0 # HC
      112      2   1   -0.120000        16.306896493        14.335428298        11.756025923   0   0   0 # CT
      113      2   2    0.060000        17.285360587        14.275644983        12.232611669   0   0   0 # HC
      114      2   2    0.060000        16.048142057        14.562385141        12.790258360   0   0   0 # HC
      115      2   1   -0.120000        17.653265190        14.602474590        11.082365319   0   0   0 # CT
      116      2   2    0.060000        18.468272487        14.510487734        11.800280025   0   0   0 # HC
      117      2   2    0.060000        17.570716648        14.496059054        10.000717746   0   0   0 # HC
      118      2   1   -0.120000        18.431889765        13.319324438        10.790628348   0   0   0 # CT
      119      2   2    0.060000        17.816517926        12.441746543        10.988806396   0   0   0 # HC
      120      2   2    0.060000        18.615123504        13.214534913         9.721261922   0   0   0 # HC
      121      3   1   -0.120000        18.185760837        10.713133034        12.335060534   0   0   0 # CT
      122      3   2    0.060000        17.162096688        10.801593587        12.698910011   0   0   0 # HC
      123      3   2    0.060000        19.123991609        11.131984530        12.698910011   0   0   0 # HC
      124      3   1   -0.120000        18.384646888        12.140643694        12.845451222   0   0   0 # CT
      125      3   2    0.060000        19.203961470        12.182574719        13.563131795   0   0   0 # HC
      126      3   2    0.060000        18.117325404        12.865487223        12.076529196   0   0   0 # HC
      127      3   1   -0.120000        19.688633156        12.706892651        12.282580960   0   0   0 # CT
      128      3   2    0.060000        19.914185158        13.674168225        12.731584587   0   0   0 # HC
      129      3   2    0.060000        20.338891344        11.904171881        11.934868932   0   0   0 # HC
      130      3   1   -0.120000        19.919278772        12.317301438        10.822148734   0   0   0 # CT
      131      3   2    0.060000        20.883376662        11.822935655        10.702910613   0   0   0 # HC
      132      3   2    0.060000        20.786046152        12.839067879        10.416471412   0   0   0 # HC
      133      3   1   -0.120000        19.996269860        13.579852654         9.963150596   0   0   0 # CT
      134      3   2    0.060000        20.791834744        14.236944948        10.314442826   0   0   0 # HC
      135      3   2    0.060000        20.815473806        13.509629813         9.247557382   0   0   0 # HC
      136      3   1   -0.120000        18.874279735        14.572041707        10.270624238   0   0   0 # CT
      137      3   2    0.060000        19.182241839        15.273845574        11.045692413   0   0   0 # HC
      138      3   2    0.060000        18.761344394        15.289851534         9.458162140   0   0   0 # HC
      139      3   1   -0.120000        19.347728029        15.991449536         9.956030646   0   0   0 # CT
      140      3   2    0.060000        19.502125186        16.558453645        10.874054534   0   0   0 # HC
      141      3   2    0.060000        20.433103590        16.060564039        10.028715423   0   0   0 # HC
      142      3   1   -0.120000        18.220597447        16.889995313         9.446096200   0   0   0 # CT
      143      3   2    0.060000        18.625238647        17.784991938         8.973500665   0   0   0 # HC
      144      3   2    0.060000        17.430923856        16.294815879         8.987536432   0   0   0 # HC
      145      3   1   -0.120000        17.844353528        17.901315311        10.529384423   0   0   0 # CT
      146      3   2    0.060000        18.456332944        17.757659572        11.419858579   0   0   0 # HC
      147      3   2    0.060000        18.737681536        18.314562938        10.997670093   0   0   0 # HC
      148      3   1   -0.120000        18.539234940        19.250603076        10.343903014   0   0   0 # CT
      149      3   2    0.060000        17.815214140        20.064704303        10.377564176   0   0   0 # HC
      150      3   2    0.060000        18.132215302        19.778247737         9.481333524   0   0   0 # HC
      151      3   1   -0.120000        19.883042901        19.040880186         9.645306225   0   0   0 # CT
      152      3   2    0.060000        20.354293546        18.118718217         9.985365236   0   0   0 # HC
      153      3   2    0.060000        19.820359109        18.223607664         8.926810319   0   0   0 # HC
      154      3   1   -0.120000        19.751290127        18.962342190         8.124019273   0   0   0 # CT
      155      3   2    0.060000        19.904622510        19.942683657         7.672887598   0   0   0 # HC
      156      3   2    0.060000        20.400225833        18.184959548         7.720709620   0   0   0 # HC
      157      3   1   -0.120000        18.463751405        18.221980020         7.760771563   0   0   0 # CT
      158      3   2    0.060000        17.649022247        18.519187995         8.421062271   0   0   0 # HC
      159      3   2    0.060000        17.710510710        18.917658985         7.390961838   0   0   0 # HC
      160      3   1   -0.120000        18.203069509        18.195834389         6.254384377   0   0   0 # CT
      161      3   2    0.060000        19.102243276        18.470601416         5.702941164   0   0   0 # HC
      162      3   2    0.060000        17.709988855        17.267889484         5.964747152   0   0   0 # HC
      163      3   1   -0.120000        19.345978725        17.462872851         5.551272076   0   0   0 # CT
      164      3   2    0.060000        19.553830157        17.913986213         4.581017204   0   0   0 # HC
      165      3   2    0.060000        20.297469615        17.675081351         6.038850416   0   0   0 # HC
      166      3   1   -0.120000        18.851614727        16.363711402         4.610373915   0   0   0 # CT
      167      3   2    0.060000        17.986740427        16.704143963         4.040989935   0   0   0 # HC
      168      3   2    0.060000        17.863638763        16.014864495         4.910889020   0   0   0 # HC
      169      3   1   -0.120000        19.867750606        15.221579860         4.581315088   0   0   0 # CT
      170      3   2    0.060000        20.885647682        15.610849926         4.602630796   0   0   0 # HC
      171      3   2    0.060000        19.422399155        14.320280616         4.160100466   0   0   0 # HC
      172      3   1   -0.120000        19.487525862        14.069702160         5.512146924   0   0   0 # CT
      173      3   2    0.060000        19.021364772        13.259296900         4.951756745   0   0   0 # HC
      174      3   2    0.060000        18.458294412        13.756480359         5.337004908   0   0   0 # HC
      175      3   1   -0.120000        18.151612737        14.379568949         6.188282778   0   0   0 # CT
      176      3   2    0.060000        17.451875178        13.554498917         6.055140780   0   0   0 # HC
      177      3   2    0.060000        17.320913456        14.169377224         5.514592832   0   0   0 # HC
      178      3   1   -0.120000        18.319878912        15.116727117         7.517239260   0   0   0 # CT
      179      3   2    0.060000        18.793762566        16.086102620         7.362819643   0   0   0 # HC
      180      3   2    0.060000        18.349110903        14.411615557         8.347939674   0   0   0 # HC
      181      4   1   -0.120000        17.598896688        11.335774909         2.488931152   0   0   0 # CT
      182      4   2    0.060000        17.352431508        12.333255974         2.852780629   0   0   0 # HC
      183      4   2    0.060000        18.491627766        11.844444529         2.852780629   0   0   0 # HC
      184      4   1   -0.120000        16.157933545        11.366880606         2.999321840   0   0   0 # CT
      185      4   2    0.060000        15.548275098        12.035505682         2.391574288   0   0   0 # HC
      186      4   2    0.060000        16.041900508        12.118512189         3.780145954   0   0   0 # HC
      187      4   1   -0.120000        15.412386603        10.129320815         2.498875517   0   0   0 # CT
      188      4   2    0.060000        14.838380904        10.361819244         1.601901750   0   0   0 # HC
      189      4   2    0.060000        14.363293800        10.166643120         2.792322846   0   0   0 # HC
      190      4   1   -0.120000        16.229118309         8.845954792         2.653024706   0   0   0 # CT
      191      4   2    0.060000        15.617879540         8.048741935         3.076036325   0   0   0 # HC
      192      4   2    0.060000        17.278019161         9.026162907         2.417584613   0   0   0 # HC
      193      4   1   -0.120000        16.501748954         8.245674863         1.273467698   0   0   0 # CT
      194      4   2    0.060000        17.249783481         7.455505375         1.338093741   0   0   0 # HC
      195      4   2    0.060000        17.565358698         8.286962079         1.038670598   0   0   0 # HC
      196      4   1   -0.120000        15.939550524         9.099839239         0.136727998   0   0   0 # CT
      197      4   2    0.060000        16.670650704         9.203744081        21.129325741   0   0   -1 # HC
      198      4   2    0.060000        15.521181578        10.029027883         0.523607680   0   0   0 # HC
      199      4   1   -0.120000        14.591122038         8.533134140        21.485620130   0   0   -1 # CT
      200      4   2    0.060000        13.954474983         8.331342085         0.552705929   0   0   0 # HC
      201      4   2    0.060000        13.776205041         8.993579976         0.249846129   0   0   0 # HC
      202      4   1   -0.120000        14.630655946         7.020686642        21.264756743   0   0   -1 # CT
      203      4   2    0.060000        14.023773149         6.741075894        20.403588292   0   0   -1 # HC
      204      4   2    0.060000        13.621649822         6.609771253        21.230768710   0   0   -1 # HC
      205      4   1   -0.120000        15.891636741         6.443623839         0.114437242   0   0   0 # CT
      206      4   2    0.060000        16.562356448         7.242204328         0.431461337   0   0   0 # HC
      207      4   2    0.060000        15.963481766         6.745798152         1.159247740   0   0   0 # HC
      208      4   1   -0.120000        16.739627790         5.636017842        20.925660876   0   0   -1 # CT
      209      4   2    0.060000        16.780072138         6.130503109        19.955120524   0   0   -1 # HC
      210      4   2    0.060000        17.511523773         6.262017612        20.477999309   0   0   -1 # HC
      211      4   1   -0.120000        15.984047464         4.370162742        20.520012953   0   0   -1 # CT
      212      4   2    0.060000        15.799127415         4.359373243        19.445867636   0   0   -1 # HC
      213      4   2    0.060000        16.600782151         3.485635552        20.679229715   0   0   -1 # HC
      214      4   1   -0.120000        14.662798899         4.672815822        19.812521370   0   0   -1 # CT
      215      4   2    0.060000        14.817324935         4.785346999        18.739414461   0   0   -1 # HC
      216      4   2    0.060000        13.908191358         3.930070451        20.071358721   0   0   -1 # HC
      217      4   1   -0.120000        13.593567719         3.687051005        20.284594892   0   0   -1 # CT
      218      4   2    0.060000        12.738294632         3.693544959        19.608898381   0   0   -1 # HC
      219      4   2    0.060000        12.611232508         4.159316208        20.293711466   0   0   -1 # HC
      220      4   1   -0.120000        14.122776035         2.258085650        20.410442300   0   0   -1 # CT
      221      4   2    0.060000        15.138421095         2.187672607        20.021074715   0   0   -1 # HC
      222      4   2    0.060000        14.489184210         1.896894950        19.449512372   0   0   -1 # HC
      223      4   1   -0.120000        15.470482554         2.274663582        21.132421048   0   0   -1 # CT
      224      4   2    0.060000        16.001465410         3.206062248        20.935815522   0   0   -1 # HC
      225      4   2    0.060000        15.492547998         1.526055178         0.130036209   0   0   0 # HC
      226      4   1   -0.120000        15.687589407         3.549967144         0.153127477   0   0   0 # CT
      227      4   2    0.060000        16.749540741         3.714522068         0.335558399   0   0   0 # HC
      228      4   2    0.060000        15.815495416         4.410123732        21.290302313   0   0   -1 # HC
      229      4   1   -0.120000        14.524506901         4.513095543        21.707754990   0   0   -1 # CT
      230      4   2    0.060000        14.704602679         5.466064840         0.410920280   0   0   0 # HC
      231      4   2    0.060000        13.704116449         4.304992532         0.600253974   0   0   0 # HC
      232      4   1   -0.120000        14.983788553         5.873917971        21.183289850   0   0   -1 # CT
      233      4   2    0.060000        15.110346377         5.846988758        20.100996944   0   0   -1 # HC
      234      4   2    0.060000        15.053481819         6.596624946         0.201926930   0   0   0 # HC
      235      4   1   -0.120000        13.946541094         6.418862175        20.200948502   0   0   -1 # CT
      236      4   2    0.060000        13.081250361         5.758100399        20.148357419   0   0   -1 # HC
      237      4   2    0.060000        13.698963816         5.670882086        19.447734537   0   0   -1 # HC
      238      4   1   -0.120000        12.832687574         7.204055665        20.894232367   0   0   -1 # CT
      239      4   2    0.060000        13.113942554         7.448979617         0.124099699   0   0   0 # HC
      240      4   2    0.060000        12.691912311         8.174626194        20.418548467   0   0   -1 # HC
      241      5   1   -0.120000         9.611599141        19.390759769        18.359006894   0   0   0 # CT
      242      5   2    0.060000         9.321204592        18.405171334        18.722856371   0   0   0 # HC
      243      5   2    0.060000        10.219789239        20.218901281        18.722856371   0   0   0 # HC
      244      5   1   -0.120000         8.201898077        19.090617710        18.869397582   0   0   0 # CT
      245      5   2    0.060000         7.840259272        19.901533089        19.501642488   0   0   0 # HC
      246      5   2    0.060000         8.231840355        18.743584573        19.902243874   0   0   0 # HC
      247      5   1   -0.120000         7.255613081        20.214344595        18.445577346   0   0   0 # CT
      248      5   2    0.060000         6.845050203        20.019210029        17.454890400   0   0   0 # HC
      249      5   2    0.060000         7.791454908        21.160311676        18.367348072   0   0   0 # HC
      250      5   1   -0.120000         5.951072051        19.691519109        17.843358770   0   0   0 # CT
      251      5   2    0.060000         6.094901135        19.406250826        16.801228643   0   0   0 # HC
      252      5   2    0.060000         5.426595181        19.053789905        18.554924280   0   0   0 # HC
      253      5   1   -0.120000         5.515607308        20.605362332        16.697452133   0   0   0 # CT
      254      5   2    0.060000         6.330152293        21.266107723        16.400750268   0   0   0 # HC
      255      5   2    0.060000         4.462889137        20.451263686        16.460517416   0   0   0 # HC
      256      5   1   -0.120000         5.869986075         0.277628186        16.945067961   0   1   0 # CT
      257      5   2    0.060000         6.629553213         0.614849653        16.239774089   0   1   0 # HC
      258      5   2    0.060000         6.818787784         0.360547225        17.475162057   0   1   0 # HC
      259      5   1   -0.120000         5.988280138         0.527245814        18.448909227   0   1   0 # CT
      260      5   2    0.060000         5.102615158         0.164462019        18.970527344   0   1   0 # HC
      261      5   2    0.060000         5.495744239         1.459714708        18.724608610   0   1   0 # HC
      262      5   1   -0.120000         7.325033968         1.158813467        18.838848325   0   1   0 # CT
      263      5   2    0.060000         7.230172368         2.241555502        18.921134175   0   1   0 # HC
      264      5   2    0.060000         7.177891273         1.947373470        19.576833520   0   1   0 # HC
      265      5   1   -0.120000         7.771251565         0.612449161        20.195394270   0   1   0 # CT
      266      5   2    0.060000         7.013093150        21.743639501        20.611955982   0   0   0 # HC
      267      5   2    0.060000         8.814280991         0.863784773        20.387800162   0   1   0 # HC
      268      5   1   -0.120000         8.297874035         1.704473204        21.127055831   0   1   0 # CT
      269      5   2    0.060000         9.106198358         2.259899506        20.651436854   0   1   0 # HC
      270      5   2    0.060000         7.643694527         2.576118526        21.107470058   0   1   0 # HC
      271      5   1   -0.120000         8.473664228         1.133539067         0.740182731   0   1   1 # CT
      272      5   2    0.060000         9.042396333         1.820829927         1.366501392   0   1   1 # HC
      273      5   2    0.060000         8.631502309         0.055710442         0.701808331   0   1   1 # HC
      274      5   1   -0.120000         7.341659693         0.185899898         1.138161047   0   1   1 # CT
      275      5   2    0.060000         6.484660817         0.745434356         1.513093194   0   1   1 # HC
      276      5   2    0.060000         7.005599567         0.392426463         2.154286221   0   1   1 # HC
      277      5   1   -0.120000         6.963788815        21.105833167        21.736485645   0   0   0 # CT
      278      5   2    0.060000         7.376732824        20.103106384         0.052215926   0   0   1 # HC
      279      5   2    0.060000         7.813332449        20.502428853        21.416675003   0   0   0 # HC
      280      5   1   -0.120000         6.009295933        19.972109274         0.318246445   0   0   1 # CT
      281      5   2    0.060000         6.204758815        19.087067524        21.507118787   0   0   0 # HC
      282      5   2    0.060000         4.973024861        20.275537216         0.169337914   0   0   1 # HC
      283      5   1   -0.120000         6.665795813        19.081006411         1.373132504   0   0   1 # CT
      284      5   2    0.060000         6.864340709        18.088205938         0.969366305   0   0   1 # HC
      285      5   2    0.060000         7.665605843        19.441998436         1.614306011   0   0   1 # HC
      286      5   1   -0.120000         7.967828849        18.447064115         0.882553115   0   0   1 # CT
      287      5   2    0.060000         8.813683417        19.107611727         1.073096817   0   0   1 # HC
      288      5   2    0.060000         8.673672373        18.331043776         1.705003235   0   0   1 # HC
      289      5   1   -0.120000         7.748074963        16.953797131         0.638211256   0   0   1 # CT
      290      5   2    0.060000         6.699469162        16.748908343         0.422464974   0   0   1 # HC
      291      5   2    0.060000         7.102114352        16.528656011         1.406384358   0   0   1 # HC
      292      5   1   -0.120000         8.527478055        16.432551816        21.224798545   0   0   0 # CT
      293      5   2    0.060000         8.368662394        15.361825456        21.096647664   0   0   0 # HC
      294      5   2    0.060000         7.847973499        16.044371095        20.466056635   0   0   0 # HC
      295      5   1   -0.120000         9.861506260        15.849021069        21.691383602   0   0   0 # CT
      296      5   2    0.060000         9.776422348        15.454591516         0.909604169   0   0   1 # HC
      297      5   2    0.060000        10.516232895        15.656644811        20.841428068   0   0   0 # HC
      298      5   1   -0.120000        11.042979725        16.777227523        21.407844833   0   0   0 # CT
      299      5   2    0.060000        11.923022144        16.203159099        21.117895208   0   0   0 # HC
      300      5   2    0.060000        10.738242400        17.821373228        21.478519509   0   0   0 # HC
      301      6   1   -0.120000         4.083137980        10.054710324        19.554591850   0   0   0 # CT
      302      6   2    0.060000         4.921611843        10.648574904        19.918441327   0   0   0 # HC
      303      6   2    0.060000         4.573717726         9.151911857        19.918441327   0   0   0 # HC
      304      6   1   -0.120000         2.886485358         9.251364292        20.064982538   0   0   0 # CT
      305      6   2    0.060000         1.950576958         9.739813382        19.793702326   0   0   0 # HC
      306      6   2    0.060000         3.219410106         8.360763762        20.597985173   0   0   0 # HC
      307      6   1   -0.120000         2.487034504         8.210298155        19.018817487   0   0   0 # CT
      308      6   2    0.060000         3.359040856         7.651821692        18.678510328   0   0   0 # HC
      309      6   2    0.060000         2.913674317         8.457570805        18.046739966   0   0   0 # HC
      310      6   1   -0.120000         1.460048002         7.207792269        19.546189910   0   0   0 # CT
      311      6   2    0.060000         0.839405277         7.662214991        20.318460974   0   0   0 # HC
      312      6   2    0.060000         1.956645150         6.351566946        20.002664958   0   0   0 # HC
      313      6   1   -0.120000         1.117232863         6.202130452        18.446661333   0   0   0 # CT
      314      6   2    0.060000         1.667592941         5.272230352        18.589803176   0   0   0 # HC
      315      6   2    0.060000         2.021665732         5.737850261        18.053539101   0   0   0 # HC
      316      6   1   -0.120000        21.426777094         6.210122105        18.081766598   -1   0   0 # CT
      317      6   2    0.060000        20.995554127         7.198019400        18.243648303   -1   0   0 # HC
      318      6   2    0.060000        21.284821544         6.538480215        17.052140659   -1   0   0 # HC
      319      6   1   -0.120000        20.587171287         6.212789773        19.359614778   -1   0   0 # CT
      320      6   2    0.060000        19.619175266         5.742897033        19.185590308   -1   0   0 # HC
      321      6   2    0.060000        21.226765082         6.165527378        20.240969442   -1   0   0 # HC
      322      6   1   -0.120000        20.073207986         4.821433223        19.730842034   -1   0   0 # CT
      323      6   2    0.060000        20.356557365         4.091135122        18.972898888   -1   0   0 # HC
      324      6   2    0.060000        19.060361505         4.672337380        19.356659678   -1   0   0 # HC
      325      6   1   -0.120000        21.077213088         4.137372896        20.659214925   -1   0   0 # CT
      326      6   2    0.060000        21.791617638         3.546609952        20.085869234   -1   0   0 # HC
      327      6   2    0.060000        20.796742715         3.098248088        20.831424109   -1   0   0 # HC
      328      6   1   -0.120000         0.700903268         4.687405415        20.502736111   0   0   0 # CT
      329      6   2    0.060000         1.304670519         4.451148542        21.378948298   0   0   0 # HC
      330      6   2    0.060000         1.419969372         3.874915887        20.398310513   0   0   0 # HC
      331      6   1   -0.120000         0.806985168         6.035650727        21.216053858   0   0   0 # CT
      332      6   2    0.060000         1.812440589         6.185355821        21.609433803   0   0   0 # HC
      333      6   2    0.060000         0.801862130         6.853949323        20.496011385   0   0   0 # HC
      334      6   1   -0.120000        21.353272130         6.899787953        21.033125866   -1   0   0 # CT
      335      6   2    0.060000        21.481939959         7.869243269        21.514479146   -1   0   0 # HC
      336      6   2    0.060000        20.634802034         6.712785788         0.036861847   -1   0   1 # HC
      337      6   1   -0.120000        21.657734874         8.035761038        20.056033962   -1   0   0 # CT
      338      6   2    0.060000        21.410103841         9.000874086        20.498001919   -1   0   0 # HC
      339      6   2    0.060000         0.093915827         7.641339656        19.066392494   0   0   0 # HC
      340      6   1   -0.120000         1.059824921         8.882927639        20.490425996   0   0   0 # CT
      341      6   2    0.060000         0.726449039         9.810217283        20.956359937   0   0   0 # HC
      342      6   2    0.060000         1.776484261         8.984099274        19.675402260   0   0   0 # HC
      343      6   1   -0.120000         1.459202657         8.508091789         0.123610576   0   0   1 # CT
      344      6   2    0.060000         2.350426044         7.880541954         0.122168752   0   0   1 # HC
      345      6   2    0.060000         2.523201167         8.681883633         0.284245456   0   0   1 # HC
      346      6   1   -0.120000         0.503468133         9.077509197         1.172503486   0   0   1 # CT
      347      6   2    0.060000        21.279636382         9.116344152         0.785320147   -1   0   1 # HC
      348      6   2    0.060000         0.721420658         8.664038085         2.157205642   0   0   1 # HC
      349      6   1   -0.120000         1.158742716        10.273168848         1.864496421   0   0   1 # CT
      350      6   2    0.060000         0.668042468        10.484998473         2.814465618   0   0   1 # HC
      351      6   2    0.060000         0.485564101        11.130416241         1.872076594   0   0   1 # HC
      352      6   1   -0.120000         2.677592120        10.133470408         1.971369400   0   0   1 # CT
      353      6   2    0.060000         3.098598891         9.775162274         1.031971412   0   0   1 # HC
      354      6   2    0.060000         2.979649950         9.994732184         3.009450694   0   0   1 # HC
      355      6   1   -0.120000         3.247773197        11.329818781         2.733921109   0   0   1 # CT
      356      6   2    0.060000         4.257912192        11.557698294         2.393641608   0   0   1 # HC
      357      6   2    0.060000         2.584749335        11.618356434         3.549546869   0   0   1 # HC
      358      6   1   -0.120000         4.308137567        10.925441470         3.758590516   0   0   1 # CT
      359      6   2    0.060000         5.039334024        10.252200542         3.311155164   0   0   1 # HC
      360      6   2    0.060000         3.845070398        10.462609095         4.630057664   0   0   1 # HC
      361      7   1   -0.120000        12.821033382        17.256934525         3.996073242   0   0   0 # CT
      362      7   2    0.060000        12.640169411        18.268370031         4.359922719   0   0   0 # HC
      363      7   2    0.060000        13.791357705        17.594846150         4.359922719   0   0   0 # HC
      364      7   1   -0.120000        12.711175304        15.819828562         4.506463930   0   0   0 # CT
      365      7   2    0.060000        11.789218370        15.680908306         5.071084664   0   0   0 # HC
      366      7   2    0.060000        12.225846161        15.184022876         3.765986548   0   0   0 # HC
      367      7   1   -0.120000        13.919479328        15.496782571         5.385943136   0   0   0 # CT
      368      7   2    0.060000        14.637546464        14.881885902         4.843373624   0   0   0 # HC
      369      7   2    0.060000        13.800299239        14.523517184         5.862021484   0   0   0 # HC
      370      7   1   -0.120000        14.176548974        16.563775132         6.450500824   0   0   0 # CT
      371      7   2    0.060000        14.833516871        16.179243255         7.230647232   0   0   0 # HC
      372      7   2    0.060000        13.690773485        17.501638224         6.181177608   0   0   0 # HC
      373      7   1   -0.120000        15.492793794        17.280375972         6.147476387   0   0   0 # CT
      374      7   2    0.060000        15.584819966        18.186584925         6.746155364   0   0   0 # HC
      375      7   2    0.060000        15.330430559        18.352065507         6.032499341   0   0   0 # HC
      376      7   1   -0.120000        15.790186902        17.359787632         4.649780782   0   0   0 # CT
      377      7   2    0.060000        15.710045153        16.375537248         4.188339039   0   0   0 # HC
      378      7   2    0.060000        15.439429147        18.305638336         4.236942504   0   0   0 # HC
      379      7   1   -0.120000        14.665095277        16.679511870         3.869245885   0   0   0 # CT
      380      7   2    0.060000        15.014054640        16.364882558         2.885713599   0   0   0 # HC
      381      7   2    0.060000        14.124069395        15.978747262         4.505107472   0   0   0 # HC
      382      7   1   -0.120000        13.873913972        17.658180181         3.000867236   0   0   0 # CT
      383      7   2    0.060000        14.542762626        18.364590447         2.509210838   0   0   0 # HC
      384      7   2    0.060000        14.319524436        17.740766087         2.009549486   0   0   0 # HC
      385      7   1   -0.120000        12.541709625        17.023451984         2.600626442   0   0   0 # CT
      386      7   2    0.060000        12.680141393        15.977585166         2.326584028   0   0   0 # HC
      387      7   2    0.060000        12.405659168        16.064996082         3.101578094   0   0   0 # HC
      388      7   1   -0.120000        11.920202273        17.683054624         1.369166346   0   0   0 # CT
      389      7   2    0.060000        12.474967066        18.579047699         1.090719882   0   0   0 # HC
      390      7   2    0.060000        11.850910622        18.762470920         1.503922153   0   0   0 # HC
      391      7   1   -0.120000        12.853170362        17.507532995         0.170582305   0   0   0 # CT
      392      7   2    0.060000        12.750570851        18.342111229        21.271346345   0   0   -1 # HC
      393      7   2    0.060000        13.819789596        17.116948640         0.488687819   0   0   0 # HC
      394      7   1   -0.120000        13.478280769        16.113533334         0.108590980   0   0   0 # CT
      395      7   2    0.060000        12.705295681        15.345514816         0.081358482   0   0   0 # HC
      396      7   2    0.060000        14.536536208        16.176753437        21.649559995   0   0   -1 # HC
      397      7   1   -0.120000        14.826065282        16.125996925         0.830506880   0   0   0 # CT
      398      7   2    0.060000        15.353356258        17.061947056         0.645949092   0   0   0 # HC
      399      7   2    0.060000        15.380298356        15.209609245         0.627629282   0   0   0 # HC
      400      7   1   -0.120000        16.003903304        15.886677384        21.679723569   0   0   -1 # CT
      401      7   2    0.060000        16.924135529        15.730745989         0.448370314   0   0   0 # HC
      402      7   2    0.060000        16.065985786        16.678546102        20.933272164   0   0   -1 # HC
      403      7   1   -0.120000        15.601167199        14.872165855        20.609017733   0   0   -1 # CT
      404      7   2    0.060000        14.971914334        14.091047276        21.035625982   0   0   -1 # HC
      405      7   2    0.060000        16.462267241        14.588032543        20.004141731   0   0   -1 # HC
      406      7   1   -0.120000        14.084999867        14.737305337        20.464483085   0   0   -1 # CT
      407      7   2    0.060000        13.709215555        15.415181181        19.698082085   0   0   -1 # HC
      408      7   2    0.060000        13.750896761        13.757982860        20.807123713   0   0   -1 # HC
      409      7   1   -0.120000        13.756878250        13.448951266        19.709287089   0   0   -1 # CT
      410      7   2    0.060000        13.168015019        12.776197653        20.332779408   0   0   -1 # HC
      411      7   2    0.060000        13.746286556        13.624910904        18.633635648   0   0   -1 # HC
      412      7   1   -0.120000        15.007905201        12.684748900        19.274813487   0   0   -1 # CT
      413      7   2    0.060000        15.193838598        12.823736383        18.209819942   0   0   -1 # HC
      414      7   2    0.060000        14.835855920        12.169475892        18.329830539   0   0   -1 # HC
      415      7   1   -0.120000        14.707872537        11.185656448        19.251506405   0   0   -1 # CT
      416      7   2    0.060000        13.648052253        11.007630037        19.069331862   0   0   -1 # HC
      417      7   2    0.060000        15.070160438        10.706035696        20.160798114   0   0   -1 # HC
      418      7   1   -0.120000        13.862815815        10.734438686        20.443195404   0   0   -1 # CT
      419      7   2    0.060000        12.800149158        10.828128213        20.219450355   0   0   -1 # HC
      420      7   2    0.060000        13.344944838        11.582403518        20.891375385   0   0   -1 # HC
      421      8   1   -0.120000        20.434676967        16.158338970        17.632910599   0   0   0 # CT
      422      8   2    0.060000        20.023437932        17.099931246        17.996760075   0   0   0 # HC
      423      8   2    0.060000        21.139313428        16.906136414        17.996760075   0   0   0 # HC
      424      8   1   -0.120000        19.944736285        14.802868397        18.143301287   0   0   0 # CT
      425      8   2    0.060000        18.866230700        14.710008563        18.015619050   0   0   0 # HC
      426      8   2    0.060000        19.301901069        14.928664609        19.014529269   0   0   0 # HC
      427      8   1   -0.120000        19.781190725        13.842506980        16.964827783   0   0   0 # CT
      428      8   2    0.060000        18.890322788        13.227071736        17.090102598   0   0   0 # HC
      429      8   2    0.060000        19.320416191        14.348570063        16.116484111   0   0   0 # HC
      430      8   1   -0.120000        20.119075747        12.396835072        17.330488070   0   0   0 # CT
      431      8   2    0.060000        19.418534505        12.013220068        18.072230274   0   0   0 # HC
      432      8   2    0.060000        20.340542111        11.814824875        16.435883811   0   0   0 # HC
      433      8   1   -0.120000        21.449206662        12.358383537        18.083557940   0   0   0 # CT
      434      8   2    0.060000         0.001837779        13.367782696        18.304514793   1   0   0 # HC
      435      8   2    0.060000        21.550722841        11.425981762        18.638914938   0   0   0 # HC
      436      8   1   -0.120000        21.268943090        12.389793101        19.601569627   0   0   0 # CT
      437      8   2    0.060000        21.133765612        13.412890246        19.952424699   0   0   0 # HC
      438      8   2    0.060000        20.930006697        11.421342554        19.969435987   0   0   0 # HC
      439      8   1   -0.120000        19.969273543        13.117728792        19.946257451   0   0   0 # CT
      440      8   2    0.060000        19.221791611        12.416639074        20.317530893   0   0   0 # HC
      441      8   2    0.060000        20.072565897        14.190046590        19.780229652   0   0   0 # HC
      442      8   1   -0.120000        19.645233425        13.071342674        21.439806020   0   0   0 # CT
      443      8   2    0.060000        18.651215706        13.475598858        21.631132216   0   0   0 # HC
      444      8   2    0.060000        19.534160963        12.041153678        21.778145407   0   0   0 # HC
      445      8   1   -0.120000        20.756915087        13.767949038         0.430793281   0   0   1 # CT
      446      8   2    0.060000        20.850185709        14.809909165         0.124656572   0   0   1 # HC
      447      8   2    0.060000        21.315664871        13.047919050         1.028669102   0   0   1 # HC
      448      8   1   -0.120000        20.217479383        14.713282267         1.504662550   0   0   1 # CT
      449      8   2    0.060000        19.802571390        14.150103056         2.340593489   0   0   1 # HC
      450      8   2    0.060000        19.581834234        15.478955008         1.059914872   0   0   1 # HC
      451      8   1   -0.120000        21.205351164        15.860737304         1.717494133   0   0   1 # CT
      452      8   2    0.060000         0.405251261        15.583085684         1.367509586   1   0   1 # HC
      453      8   2    0.060000        21.709178979        16.113426752         0.784538841   0   0   1 # HC
      454      8   1   -0.120000         0.670978402        15.423548411         2.465277876   1   0   1 # CT
      455      8   2    0.060000         1.481792334        15.217621104         1.766511312   1   0   1 # HC
      456      8   2    0.060000         0.916188132        14.386998148         2.233899958   1   0   1 # HC
      457      8   1   -0.120000         1.798694695        16.418878429         2.190659743   1   0   1 # CT
      458      8   2    0.060000         2.129885154        16.890739639         3.115732647   1   0   1 # HC
      459      8   2    0.060000         1.538962616        17.408635664         2.566185856   1   0   1 # HC
      460      8   1   -0.120000         2.969259572        16.267196408         3.162570970   1   0   1 # CT
      461      8   2    0.060000         3.451743549        15.297982973         3.036338926   1   0   1 # HC
      462      8   2    0.060000         2.803245564        16.861127328         4.061339801   1   0   1 # HC
      463      8   1   -0.120000         4.163027678        17.075945728         2.653961841   1   0   1 # CT
      464      8   2    0.060000         4.986622075        16.416516168         2.380201135   1   0   1 # HC
      465      8   2    0.060000         4.024343099        18.137594608         2.858334646   1   0   1 # HC
      466      8   1   -0.120000         3.961547010        17.592843004         1.229158785   1   0   1 # CT
      467      8   2    0.060000         4.371622290        16.890908802         0.503055045   1   0   1 # HC
      468      8   2    0.060000         3.787625348        18.668876929         1.230658043   1   0   1 # HC
      469      8   1   -0.120000         2.656974363        17.031846945         0.662400786   1   0   1 # CT
      470      8   2    0.060000         1.797454837        17.545921036         1.092579832   1   0   1 # HC
      471      8   2    0.060000         2.848995675        16.438037874        21.563089685   1   0   0 # HC
      472      8   1   -0.120000         2.382614128        15.599057835         1.120312161   1   0   1 # CT
      473      8   2    0.060000         3.189550106        14.934624972         0.811308446   1   0   1 # HC
      474      8   2    0.060000         2.606415338        14.890248005         0.323065874   1   0   1 # HC
      475      8   1   -0.120000         3.518973076        15.126823163         2.027794258   1   0   1 # CT
      476      8   2    0.060000         4.358095168        15.821344380         1.987614744   1   0   1 # HC
      477      8   2    0.060000         3.147909954        14.429108351         2.778531363   1   0   1 # HC
      478      8   1   -0.120000         4.861532210        15.048930140         1.300258247   1   0   1 # CT
      479      8   2    0.060000         4.785330115        14.413458963         0.417948990   1   0   1 # HC
      480      8   2    0.060000         5.451214678        15.947349361         1.482514909   1   0   1 # HC
      481      9   1   -0.120000        19.198024315         6.124951031         2.323551324   0   0   0 # CT
      482      9   2    0.060000        19.042148111         7.140537643         2.687400801   0   0   0 # HC
      483      9   2    0.060000        19.597338144         5.178239868         2.687400801   0   0   0 # HC
      484      9   1   -0.120000        18.430205854         4.905198123         2.833942012   0   0   0 # CT
      485      9   2    0.060000        19.118033750         4.138154760         3.189803313   0   0   0 # HC
      486      9   2    0.060000        18.032714489         5.090030194         3.831908804   0   0   0 # HC
      487      9   1   -0.120000        17.094497248         5.354441379         3.427156994   0   0   0 # CT
      488      9   2    0.060000        16.985634029         4.992208371         4.449427040   0   0   0 # HC
      489      9   2    0.060000        16.289400775         4.692077056         3.109048249   0   0   0 # HC
      490      9   1   -0.120000        17.060338654         6.851208089         3.737581874   0   0   0 # CT
      491      9   2    0.060000        16.181732594         7.317250150         3.291536823   0   0   0 # HC
      492      9   2    0.060000        16.283682145         7.075422719         4.468767533   0   0   0 # HC
      493      9   1   -0.120000        17.048936281         7.058146661         5.252470455   0   0   0 # CT
      494      9   2    0.060000        17.964847230         7.549240246         5.581156055   0   0   0 # HC
      495      9   2    0.060000        16.560098231         7.997923495         5.509291138   0   0   0 # HC
      496      9   1   -0.120000        16.949150761         5.743527195         6.026847308   0   0   0 # CT
      497      9   2    0.060000        16.460206340         5.899009280         6.988543037   0   0   0 # HC
      498      9   2    0.060000        17.838845690         5.134215690         5.867842833   0   0   0 # HC
      499      9   1   -0.120000        18.161382122         5.600269613         6.947615135   0   0   0 # CT
      500      9   2    0.060000        18.969906831         6.256255334         6.625015494   0   0   0 # HC
      501      9   2    0.060000        18.539840072         6.579306631         7.241479215   0   0   0 # HC
      502      9   1   -0.120000        19.387702633         5.040741191         6.225876296   0   0   0 # CT
      503      9   2    0.060000        20.301352213         5.300928989         6.760335606   0   0   0 # HC
      504      9   2    0.060000        19.718747889         5.723180806         5.443070312   0   0   0 # HC
      505      9   1   -0.120000        19.051544652         3.671049141         5.635298190   0   0   0 # CT
      506      9   2    0.060000        19.631398851         2.887986442         6.123849024   0   0   0 # HC
      507      9   2    0.060000        17.976303710         3.494046024         5.660334464   0   0   0 # HC
      508      9   1   -0.120000        18.893616198         3.706691772         4.114893899   0   0   0 # CT
      509      9   2    0.060000        19.859858346         3.847031138         3.630351875   0   0   0 # HC
      510      9   2    0.060000        17.884059237         3.414939731         3.825453943   0   0   0 # HC
      511      9   1   -0.120000        20.082423897         3.001159593         3.461593357   0   0   0 # CT
      512      9   2    0.060000        19.794841557         2.569185741         2.503055414   0   0   0 # HC
      513      9   2    0.060000        19.799321783         2.005577960         3.119876508   0   0   0 # HC
      514      9   1   -0.120000        20.425664133         3.574295493         2.086259805   0   0   0 # CT
      515      9   2    0.060000        21.342110759         3.127705978         1.700535311   0   0   0 # HC
      516      9   2    0.060000        20.128183657         4.620807368         2.019789783   0   0   0 # HC
      517      9   1   -0.120000        19.323896335         3.208195009         1.091312995   0   0   0 # CT
      518      9   2    0.060000        18.662210914         4.057176949         0.919551331   0   0   0 # HC
      519      9   2    0.060000        19.442556889         3.766168101         0.162504241   0   0   0 # HC
      520      9   1   -0.120000        19.255265106         1.706269782         0.813191859   0   0   0 # CT
      521      9   2    0.060000        18.792884305         1.514463112        21.639282224   0   0   -1 # HC
      522      9   2    0.060000        19.136274856         1.147569369         1.741521095   0   0   0 # HC
      523      9   1   -0.120000        17.985412184         1.128790953         1.439157321   0   0   0 # CT
      524      9   2    0.060000        17.808641948         0.113267290         1.084807249   0   0   0 # HC
      525      9   2    0.060000        18.219334402         0.257716535         2.051211038   0   0   0 # HC
      526      9   1   -0.120000        16.719088242         1.530858033         0.682449492   0   0   0 # CT
      527      9   2    0.060000        16.891669319         2.431929520         0.093903872   0   0   0 # HC
      528      9   2    0.060000        16.097696387         2.186668336         1.292273244   0   0   0 # HC
      529      9   1   -0.120000        16.995906043         1.513735555        20.973157522   0   0   -1 # CT
      530      9   2    0.060000        17.608431379         0.653252134        20.703934573   0   0   -1 # HC
      531      9   2    0.060000        17.622060646         2.358813524        20.687021822   0   0   -1 # HC
      532      9   1   -0.120000        18.487324678         1.597301063        20.646770849   0   0   -1 # CT
      533      9   2    0.060000        18.802819043         0.733087120        20.062221821   0   0   -1 # HC
      534      9   2    0.060000        18.915725464         2.520963047        21.035899755   0   0   -1 # HC
      535      9   1   -0.120000        19.205875203         0.378859993        21.227225414   0   0   -1 # CT
      536      9   2    0.060000        18.984922491         0.270947663         0.494783397   0   0   0 # HC
      537      9   2    0.060000        20.007450682         0.687719767         0.103838208   0   0   0 # HC
      538      9   1   -0.120000        18.917779974        20.890744917        20.446109510   0   -1   -1 # CT
      539      9   2    0.060000        17.856074490        20.812401972        20.212135476   0   -1   -1 # HC
      540      9   2    0.060000        18.413562779        21.116904148        19.506579296   0   -1   -1 # HC
      541      10   1   -0.120000        11.350248452         2.576394791        11.697531118   0   0   0 # CT
      542      10   2    0.060000        11.657375146         3.556898106        12.061380595   0   0   0 # HC
      543      10   2    0.060000        11.230258964         1.555945830        12.061380595   0   0   0 # HC
      544      10   1   -0.120000        12.719804592         2.127330959        12.207921806   0   0   0 # CT
      545      10   2    0.060000        12.960597638         1.130381744        11.838854100   0   0   0 # HC
      546      10   2    0.060000        13.395849654         1.931363753        11.375659871   0   0   0 # HC
      547      10   1   -0.120000        12.621998714         1.779939930        13.693719398   0   0   0 # CT
      548      10   2    0.060000        13.264405616         2.432425091        14.285053894   0   0   0 # HC
      549      10   2    0.060000        11.589025498         1.573775190        13.974009310   0   0   0 # HC
      550      10   1   -0.120000        13.783163841         0.908611464        14.173639445   0   0   0 # CT
      551      10   2    0.060000        13.636224692         0.608084454        15.211036380   0   0   0 # HC
      552      10   2    0.060000        13.436880254        21.697751872        14.413960804   0   -1   0 # HC
      553      10   1   -0.120000        14.170768726        21.716743894        13.071373090   0   -1   0 # CT
      554      10   2    0.060000        13.919957974         0.323869125        12.089529519   0   0   0 # HC
      555      10   2    0.060000        15.009663327         0.304730447        12.489841016   0   0   0 # HC
      556      10   1   -0.120000        12.956667163        21.061791586        12.411952232   0   -1   0 # CT
      557      10   2    0.060000        13.235026509        20.600165493        11.464578269   0   -1   0 # HC
      558      10   2    0.060000        12.725758336        21.545800837        11.462996933   0   -1   0 # HC
      559      10   1   -0.120000        11.792668506        21.030309021        13.402889654   0   -1   0 # CT
      560      10   2    0.060000        10.848480870        21.225637175        12.894503364   0   -1   0 # HC
      561      10   2    0.060000        12.098345957        20.568623685        14.341776200   0   -1   0 # HC
      562      10   1   -0.120000        10.749466368        19.968244178        13.054194128   0   -1   0 # CT
      563      10   2    0.060000         9.922704948        20.408628216        12.496854507   0   -1   0 # HC
      564      10   2    0.060000         9.884246101        20.047316332        13.712404948   0   -1   0 # HC
      565      10   1   -0.120000        10.401238339        20.063313192        11.568414830   0   -1   0 # CT
      566      10   2    0.060000        11.079080176        19.450829987        10.973860570   0   -1   0 # HC
      567      10   2    0.060000         9.685187541        19.290007011        11.290262343   0   -1   0 # HC
      568      10   1   -0.120000        11.559258549        20.595819393        10.723863270   0   -1   0 # CT
      569      10   2    0.060000        11.439146494        21.662443150        10.534161256   0   -1   0 # HC
      570      10   2    0.060000        11.852257062        19.866765745         9.968394772   0   -1   0 # HC
      571      10   1   -0.120000        11.130757026        20.668186404         9.257919730   0   -1   0 # CT
      572      10   2    0.060000        10.905650062        21.695811228         8.972588212   0   -1   0 # HC
      573      10   2    0.060000        10.060344687        20.487266733         9.160014181   0   -1   0 # HC
      574      10   1   -0.120000        11.836411871        19.629988865         8.384971788   0   -1   0 # CT
      575      10   2    0.060000        12.886875070        19.543109619         8.662602955   0   -1   0 # HC
      576      10   2    0.060000        12.007571766        20.021909367         7.382373857   0   -1   0 # HC
      577      10   1   -0.120000        10.964643705        18.378733530         8.274421572   0   -1   0 # CT
      578      10   2    0.060000        11.111899917        17.890437581         7.311102998   0   -1   0 # HC
      579      10   2    0.060000        11.320557536        17.600322939         8.949330675   0   -1   0 # HC
      580      10   1   -0.120000         9.826024581        18.360853514         9.294748871   0   -1   0 # CT
      581      10   2    0.060000        10.159320080        17.924631028        10.236409135   0   -1   0 # HC
      582      10   2    0.060000         8.873414984        18.581037180         8.812925138   0   -1   0 # HC
      583      10   1   -0.120000         9.445945708        16.913807451         9.610087960   0   -1   0 # CT
      584      10   2    0.060000         9.138413009        16.390215978         8.704894274   0   -1   0 # HC
      585      10   2    0.060000         9.706960235        16.662146785        10.638017104   0   -1   0 # HC
      586      10   1   -0.120000         8.077949986        16.526997893         9.047231786   0   -1   0 # CT
      587      10   2    0.060000         8.151324853        15.621949765         8.444235919   0   -1   0 # HC
      588      10   2    0.060000         8.129440871        16.394440281         7.966548129   0   -1   0 # HC
      589      10   1   -0.120000         7.063771606        16.436465664        10.187883849   0   -1   0 # CT
      590      10   2    0.060000         7.174131175        17.279932350        10.869415004   0   -1   0 # HC
      591      10   2    0.060000         6.390982654        15.591880005        10.039121989   0   -1   0 # HC
      592      10   1   -0.120000         5.777766705        17.210632134         9.896853486   0   -1   0 # CT
      593      10   2    0.060000         4.909382722        16.671287985        10.275161754   0   -1   0 # HC
      594      10   2    0.060000         5.831828479        17.694843382         8.921806414   0   -1   0 # HC
      595      10   1   -0.120000         6.023663151        18.198157351         8.755726901   0   -1   0 # CT
      596      10   2    0.060000         6.840542069        18.876356512         9.002414420   0   -1   0 # HC
      597      10   2    0.060000         5.685279109        19.197064292         9.031010690   0   -1   0 # HC
      598      10   1   -0.120000         5.896174274        17.550040006         7.376766606   0   -1   0 # CT
      599      10   2    0.060000         5.816462542        16.466637900         7.466130562   0   -1   0 # HC
      600      10   2    0.060000         6.679872834        16.807611507         7.226046697   0   -1   0 # HC
      601      11   1   -0.120000         9.609338903         1.907575007         2.909305289   0   0   0 # CT
      602      11   2    0.060000         9.773918348         0.893362424         3.273154765   0   0   0 # HC
      603      11   2    0.060000         9.435036906         2.920161978         3.273154765   0   0   0 # HC
      604      11   1   -0.120000        10.999937336         2.286492339         3.419695976   0   0   0 # CT
      605      11   2    0.060000        10.937684998         3.107376235         4.134100816   0   0   0 # HC
      606      11   2    0.060000        11.538155598         2.871023289         2.673542728   0   0   0 # HC
      607      11   1   -0.120000        11.506213619         1.203712526         4.373170257   0   0   0 # CT
      608      11   2    0.060000        12.595874728         1.178894122         4.384247920   0   0   0 # HC
      609      11   2    0.060000        10.711957093         0.881043656         5.046328018   0   0   0 # HC
      610      11   1   -0.120000        12.391916756         1.764680499         5.486132919   0   0   0 # CT
      611      11   2    0.060000        13.446078937         1.658311758         5.230148963   0   0   0 # HC
      612      11   2    0.060000        13.085042742         2.506722887         5.089838254   0   0   0 # HC
      613      11   1   -0.120000        11.670116562         2.920899048         6.178956234   0   0   0 # CT
      614      11   2    0.060000        11.038812082         2.551929872         6.987297994   0   0   0 # HC
      615      11   2    0.060000        12.303753916         3.807255574         6.210194240   0   0   0 # HC
      616      11   1   -0.120000        12.372228708         3.371757085         7.460208186   0   0   0 # CT
      617      11   2    0.060000        12.126489222         4.408575837         7.689814330   0   0   0 # HC
      618      11   2    0.060000        13.080697119         4.172952648         7.249831901   0   0   0 # HC
      619      11   1   -0.120000        12.606598558         2.162677207         8.366319449   0   0   0 # CT
      620      11   2    0.060000        13.650254811         2.110087317         8.676345141   0   0   0 # HC
      621      11   2    0.060000        11.742702569         1.498138925         8.353182009   0   0   0 # HC
      622      11   1   -0.120000        11.593842882         2.076198826         9.508549036   0   0   0 # CT
      623      11   2    0.060000        11.352913625         3.070001611         9.885920361   0   0   0 # HC
      624      11   2    0.060000        11.777238732         1.192698089        10.120016460   0   0   0 # HC
      625      11   1   -0.120000        10.320648652         2.828340462         9.119832673   0   0   0 # CT
      626      11   2    0.060000        10.513356700         3.898469677         9.043759866   0   0   0 # HC
      627      11   2    0.060000         9.435573343         2.280621564         9.443477085   0   0   0 # HC
      628      11   1   -0.120000        10.516031305         3.727446925         7.898655296   0   0   0 # CT
      629      11   2    0.060000         9.572969613         3.871479565         7.371408444   0   0   0 # HC
      630      11   2    0.060000        11.554335304         3.707336811         7.567565595   0   0   0 # HC
      631      11   1   -0.120000        10.581251375         5.188222347         8.345558539   0   0   0 # CT
      632      11   2    0.060000         9.581880757         5.620284725         8.397331777   0   0   0 # HC
      633      11   2    0.060000        11.599406928         5.569665575         8.268355342   0   0   0 # HC
      634      11   1   -0.120000         9.881440246         6.135411750         7.370398236   0   0   0 # CT
      635      11   2    0.060000         8.860605974         5.805206980         7.178142682   0   0   0 # HC
      636      11   2    0.060000         9.455078332         6.987456222         7.899865644   0   0   0 # HC
      637      11   1   -0.120000        10.757627832         6.332698553         6.132975821   0   0   0 # CT
      638      11   2    0.060000        11.295170537         7.279308900         6.188443755   0   0   0 # HC
      639      11   2    0.060000        10.436438156         7.208475671         5.569103823   0   0   0 # HC
      640      11   1   -0.120000        11.252373907         5.011466371         5.543558446   0   0   0 # CT
      641      11   2    0.060000        11.158966206         5.015084370         4.457574140   0   0   0 # HC
      642      11   2    0.060000        10.484962191         4.558130770         4.916130289   0   0   0 # HC
      643      11   1   -0.120000        10.236472185         3.907982757         5.840389385   0   0   0 # CT
      644      11   2    0.060000        10.673643351         2.924800432         5.666223120   0   0   0 # HC
      645      11   2    0.060000         9.253982660         4.333562302         6.044586306   0   0   0 # HC
      646      11   1   -0.120000         9.143352900         3.810386361         4.775773881   0   0   0 # CT
      647      11   2    0.060000         8.300377405         3.224223358         5.141704544   0   0   0 # HC
      648      11   2    0.060000         9.099895501         4.724251089         4.183268427   0   0   0 # HC
      649      11   1   -0.120000         7.905717459         3.141632295         5.374829401   0   0   0 # CT
      650      11   2    0.060000         7.802158494         2.121408713         5.005344107   0   0   0 # HC
      651      11   2    0.060000         7.382016618         3.826940046         6.041305744   0   0   0 # HC
      652      11   1   -0.120000         7.071451654         2.400314887         4.329702582   0   0   0 # CT
      653      11   2    0.060000         7.687571923         2.113905093         3.477373277   0   0   0 # HC
      654      11   2    0.060000         6.611901367         1.511957797         4.762986800   0   0   0 # HC
      655      11   1   -0.120000         6.792968006         3.328452174         3.146973097   0   0   0 # CT
      656      11   2    0.060000         7.540165096         4.120302624         3.094348254   0   0   0 # HC
      657      11   2    0.060000         5.730809692         3.332587133         2.902222982   0   0   0 # HC
      658      11   1   -0.120000         6.178590045         4.661564740         3.574981982   0   0   0 # CT
      659      11   2    0.060000         6.825551743         5.492199491         3.292871236   0   0   0 # HC
      660      11   2    0.060000         6.598784509         4.992152909         4.524849381   0   0   0 # HC
      661      12   1   -0.120000         3.965303374        16.739212681         3.945344313   0   0   0 # CT
      662      12   2    0.060000         3.867642778        15.716385244         4.309193789   0   0   0 # HC
      663      12   2    0.060000         4.923043736        17.111297293         4.309193789   0   0   0 # HC
      664      12   1   -0.120000         3.488529060        18.099370245         4.455735000   0   0   0 # CT
      665      12   2    0.060000         2.908475585        17.985514639         5.371526935   0   0   0 # HC
      666      12   2    0.060000         2.492388123        18.325936863         4.075641853   0   0   0 # HC
      667      12   1   -0.120000         4.515345689        19.170985815         4.088136470   0   0   0 # CT
      668      12   2    0.060000         5.512461743        18.737959314         4.008464483   0   0   0 # HC
      669      12   2    0.060000         4.241754396        20.132159724         4.523328980   0   0   0 # HC
      670      12   1   -0.120000         5.639945125        19.288357884         5.117379351   0   0   0 # CT
      671      12   2    0.060000         5.239378286        19.544496616         6.098215299   0   0   0 # HC
      672      12   2    0.060000         6.257677129        18.390300460         5.117195238   0   0   0 # HC
      673      12   1   -0.120000         6.861013777        19.939526419         4.467139484   0   0   0 # CT
      674      12   2    0.060000         6.960473383        20.976859309         4.786745904   0   0   0 # HC
      675      12   2    0.060000         7.500043183        20.398941991         5.221247401   0   0   0 # HC
      676      12   1   -0.120000         6.508306819        21.204655237         3.684267925   0   0   0 # CT
      677      12   2    0.060000         5.470387936        21.175717263         3.352625067   0   0   0 # HC
      678      12   2    0.060000         6.941154351        21.172264334         2.684421015   0   0   0 # HC
      679      12   1   -0.120000         6.390570818         0.591042156         4.648557733   0   1   0 # CT
      680      12   2    0.060000         7.377294318         0.936097114         4.957448993   0   1   0 # HC
      681      12   2    0.060000         5.862946041         0.296489688         5.555724167   0   1   0 # HC
      682      12   1   -0.120000         6.209295349         1.926638911         3.926642564   0   1   0 # CT
      683      12   2    0.060000         6.343117274         2.759203236         4.617314944   0   1   0 # HC
      684      12   2    0.060000         5.425375243         1.853856475         3.172804395   0   1   0 # HC
      685      12   1   -0.120000         7.388182332         2.159983964         2.981329617   0   1   0 # CT
      686      12   2    0.060000         7.056396100         2.154669545         1.943066811   0   1   0 # HC
      687      12   2    0.060000         8.297600706         2.370330046         3.544190830   0   1   0 # HC
      688      12   1   -0.120000         8.407445173         1.020825715         3.016864713   0   1   0 # CT
      689      12   2    0.060000         9.298659230         1.283318272         2.446833870   0   1   0 # HC
      690      12   2    0.060000         9.324985517         1.340073647         3.511132327   0   1   0 # HC
      691      12   1   -0.120000         7.817276233        21.625707355         3.774968947   0   0   0 # CT
      692      12   2    0.060000         7.954393647        20.703021546         3.211098650   0   0   0 # HC
      693      12   2    0.060000         8.203163179        21.588255177         4.793688044   0   0   0 # HC
      694      12   1   -0.120000         8.890272390        20.728840985         4.393152545   0   0   0 # CT
      695      12   2    0.060000         8.631287528        19.677245036         4.269974622   0   0   0 # HC
      696      12   2    0.060000         9.697668850        21.328057674         4.814044829   0   0   0 # HC
      697      12   1   -0.120000         8.359214527        20.117226336         5.689974070   0   0   0 # CT
      698      12   2    0.060000         7.378113686        20.524355920         5.934487140   0   0   0 # HC
      699      12   2    0.060000         8.707188842        19.090406189         5.802465233   0   0   0 # HC
      700      12   1   -0.120000         7.521178882        18.861054039         5.450039875   0   0   0 # CT
      701      12   2    0.060000         7.228731748        18.406401631         6.396541783   0   0   0 # HC
      702      12   2    0.060000         6.507083393        18.996832016         5.825905117   0   0   0 # HC
      703      12   1   -0.120000         8.285453436        17.634548636         5.949449429   0   0   0 # CT
      704      12   2    0.060000         9.032193820        17.921082392         6.689974381   0   0   0 # HC
      705      12   2    0.060000         8.727834713        17.090185281         5.115142924   0   0   0 # HC
      706      12   1   -0.120000         7.828177139        17.178324369         7.335306134   0   0   0 # CT
      707      12   2    0.060000         7.921727776        16.096957053         7.435271150   0   0   0 # HC
      708      12   2    0.060000         8.479470136        17.584751301         8.109085547   0   0   0 # HC
      709      12   1   -0.120000         6.484462033        17.827273119         7.668677152   0   0   0 # CT
      710      12   2    0.060000         5.675472140        17.101192701         7.588411470   0   0   0 # HC
      711      12   2    0.060000         5.804246630        17.762878446         6.819406682   0   0   0 # HC
      712      12   1   -0.120000         6.359190187        19.245063773         7.110091773   0   0   0 # CT
      713      12   2    0.060000         7.134136573        19.436630735         6.367892206   0   0   0 # HC
      714      12   2    0.060000         6.557461021        19.983978800         7.886489390   0   0   0 # HC
      715      12   1   -0.120000         7.561378591        19.549318640         6.215657306   0   0   0 # CT
      716      12   2    0.060000         8.487720142        19.510132920         6.788767951   0   0   0 # HC
      717      12   2    0.060000         7.918718248        20.565400051         6.382950273   0   0   0 # HC
      718      12   1   -0.120000         7.184236670        20.361630986         4.976402036   0   0   0 # CT
      719      12   2    0.060000         7.903138478        20.196372499         4.173924732   0   0   0 # HC
      720      12   2    0.060000         8.040635392        20.929315919         4.612513255   0   0   0 # HC
      721      13   1   -0.120000        12.141511227        18.131039660        11.499289228   0   0   0 # CT
      722      13   2    0.060000        12.093304478        19.157387393        11.863138704   0   0   0 # HC
      723      13   2    0.060000        13.155055029        17.962390553        11.863138704   0   0   0 # HC
      724      13   1   -0.120000        10.971655351        18.972930137        12.009679916   0   0   0 # CT
      725      13   2    0.060000        10.117449133        18.893327308        11.337299720   0   0   0 # HC
      726      13   2    0.060000        11.172528730        19.342083557        13.015401367   0   0   0 # HC
      727      13   1   -0.120000        11.384863211        20.444214542        12.058898438   0   0   0 # CT
      728      13   2    0.060000        12.086793802        20.674293648        11.257364253   0   0   0 # HC
      729      13   2    0.060000        12.426562657        20.541831125        12.364566997   0   0   0 # HC
      730      13   1   -0.120000        10.394250501        21.309544572        12.838469729   0   0   0 # CT
      731      13   2    0.060000        10.605955728        21.270067894        13.906983878   0   0   0 # HC
      732      13   2    0.060000         9.771451488         0.095974428        12.158084793   0   1   0 # HC
      733      13   1   -0.120000        11.014382229         0.887233588        13.104560553   0   1   0 # CT
      734      13   2    0.060000        11.196424596         1.415794436        12.168834094   0   1   0 # HC
      735      13   2    0.060000        10.495007384         1.393552906        13.918188551   0   1   0 # HC
      736      13   1   -0.120000        12.500956497         0.805359149        13.452748034   0   1   0 # CT
      737      13   2    0.060000        13.041007447         0.227177101        12.702981076   0   1   0 # HC
      738      13   2    0.060000        12.685927171         0.002218662        14.166086108   0   1   0 # HC
      739      13   1   -0.120000        12.897918514         2.024439505        14.285877820   0   1   0 # CT
      740      13   2    0.060000        12.495529282         2.937933600        13.848029166   0   1   0 # HC
      741      13   2    0.060000        12.119916784         2.266116659        15.010036271   0   1   0 # HC
      742      13   1   -0.120000        13.293313965         1.657927647        15.716672178   0   1   0 # CT
      743      13   2    0.060000        12.612839236         0.910747535        16.125054381   0   1   0 # HC
      744      13   2    0.060000        13.501690039         0.591091312        15.797540257   0   1   0 # HC
      745      13   1   -0.120000        12.219555611         2.153595097        16.685794345   0   1   0 # CT
      746      13   2    0.060000        12.230890589         1.568588853        17.605435151   0   1   0 # HC
      747      13   2    0.060000        12.607658017         2.192837066        17.703604048   0   1   0 # HC
      748      13   1   -0.120000        11.423247137         1.011861980        17.318391613   0   1   0 # CT
      749      13   2    0.060000        10.518844436         0.808885098        16.744844632   0   1   0 # HC
      750      13   2    0.060000        10.361673952         1.256474093        17.354823541   0   1   0 # HC
      751      13   1   -0.120000        11.157433907        21.726564541        16.268839470   0   0   0 # CT
      752      13   2    0.060000        10.205253428         0.107707532        15.768183086   0   1   0 # HC
      753      13   2    0.060000        11.993199659        21.651422944        15.573174790   0   0   0 # HC
      754      13   1   -0.120000        10.178077607        20.658293640        16.756178695   0   0   0 # CT
      755      13   2    0.060000         9.629867240        21.008420058        17.630808265   0   0   0 # HC
      756      13   2    0.060000        10.571008807        19.659622046        16.565495401   0   0   0 # HC
      757      13   1   -0.120000         9.851161756        19.703492312        15.607561504   0   0   0 # CT
      758      13   2    0.060000        10.712496357        19.080021819        15.367796515   0   0   0 # HC
      759      13   2    0.060000        10.151047915        18.685351296        15.855668661   0   0   0 # HC
      760      13   1   -0.120000         9.104008188        20.390240206        14.463892025   0   0   0 # CT
      761      13   2    0.060000         8.029730310        20.386417750        14.648316616   0   0   0 # HC
      762      13   2    0.060000         9.476800657        21.403429079        14.313645287   0   0   0 # HC
      763      13   1   -0.120000         9.943630316        20.315654909        13.188230347   0   0   0 # CT
      764      13   2    0.060000        10.081154553        19.279975301        12.877497610   0   0   0 # HC
      765      13   2    0.060000         9.498796405        20.920778976        12.398263478   0   0   0 # HC
      766      13   1   -0.120000        11.378761561        20.799951450        13.397266634   0   0   0 # CT
      767      13   2    0.060000        12.092140957        20.039713401        13.079103238   0   0   0 # HC
      768      13   2    0.060000        11.388651337         0.010084794        13.820384106   0   1   0 # HC
      769      13   1   -0.120000        12.145174836        19.777678737        14.237153645   0   0   0 # CT
      770      13   2    0.060000        13.161759597        20.121054967        14.428851815   0   0   0 # HC
      771      13   2    0.060000        12.408407808        20.196689065        15.208358437   0   0   0 # HC
      772      13   1   -0.120000        11.552908974        18.371390905        14.140114057   0   0   0 # CT
      773      13   2    0.060000        12.343540699        17.624350322        14.069886973   0   0   0 # HC
      774      13   2    0.060000        11.969423172        17.835938537        13.286939582   0   0   0 # HC
      775      13   1   -0.120000        10.204451466        18.334702710        14.859945513   0   0   0 # CT
      776      13   2    0.060000         9.474601752        17.767570706        14.282207957   0   0   0 # HC
      777      13   2    0.060000        10.259600370        17.707460659        15.749679185   0   0   0 # HC
      778      13   1   -0.120000         9.720487587        16.910458609        15.134078152   0   0   0 # CT
      779      13   2    0.060000         8.762481219        16.728613808        14.646988563   0   0   0 # HC
      780      13   2    0.060000         8.753799984        16.922221538        15.637542860   0   0   0 # HC
      781      14   1   -0.120000         4.830024651        10.342053977         5.011999657   0   0   0 # CT
      782      14   2    0.060000         4.885014504        11.368060641         5.375849133   0   0   0 # HC
      783      14   2    0.060000         4.657004153         9.329247251         5.375849133   0   0   0 # HC
      784      14   1   -0.120000         3.541339601         9.696582685         5.522390345   0   0   0 # CT
      785      14   2    0.060000         3.735063599         8.689825477         5.892540227   0   0   0 # HC
      786      14   2    0.060000         3.523488829         9.681237956         6.612136136   0   0   0 # HC
      787      14   1   -0.120000         2.439408215        10.753311702         5.605528818   0   0   0 # CT
      788      14   2    0.060000         1.869437351        10.789481440         4.677129678   0   0   0 # HC
      789      14   2    0.060000         1.460907629        10.282847347         5.701964771   0   0   0 # HC
      790      14   1   -0.120000         2.958548759        12.111119844         6.079544794   0   0   0 # CT
      791      14   2    0.060000         3.053667372        12.129600337         7.165229334   0   0   0 # HC
      792      14   2    0.060000         4.037638988        12.180363251         5.942178028   0   0   0 # HC
      793      14   1   -0.120000         1.957788904        13.202009004         5.697077082   0   0   0 # CT
      794      14   2    0.060000         2.457187306        14.165944710         5.599459508   0   0   0 # HC
      795      14   2    0.060000         2.195656955        13.616828216         4.717565054   0   0   0 # HC
      796      14   1   -0.120000         0.845508567        12.687991239         4.782495653   0   0   0 # CT
      797      14   2    0.060000         1.081090476        12.890958254         3.737792080   0   0   0 # HC
      798      14   2    0.060000         0.465433957        13.490082184         4.149808206   0   0   0 # HC
      799      14   1   -0.120000        21.412106586        12.333058131         5.621843283   -1   0   0 # CT
      800      14   2    0.060000        20.646238729        11.863215194         5.004758167   -1   0   0 # HC
      801      14   2    0.060000        21.431181602        12.861420123         6.575032534   -1   0   0 # HC
      802      14   1   -0.120000        20.187540494        13.174695930         5.261392587   -1   0   0 # CT
      803      14   2    0.060000        20.160894058        14.089461119         5.853502894   -1   0   0 # HC
      804      14   2    0.060000        19.507763367        13.249103621         6.110195598   -1   0   0 # HC
      805      14   1   -0.120000        19.031340346        12.252982923         4.872178826   -1   0   0 # CT
      806      14   2    0.060000        18.897162333        12.238892396         3.790560725   -1   0   0 # HC
      807      14   2    0.060000        18.148973659        12.465841730         5.475685378   -1   0   0 # HC
      808      14   1   -0.120000        19.498034570        10.844348433         4.503686798   -1   0   0 # CT
      809      14   2    0.060000        18.873626708        10.425741501         3.714394040   -1   0   0 # HC
      810      14   2    0.060000        18.644688558        10.186299630         4.339758898   -1   0   0 # HC
      811      14   1   -0.120000        20.842456510        10.560338979         5.174290465   -1   0   0 # CT
      812      14   2    0.060000        21.363462928         9.749664982         4.664918319   -1   0   0 # HC
      813      14   2    0.060000        21.098817408        11.354723607         5.875241357   -1   0   0 # HC
      814      14   1   -0.120000         0.173558762        11.445749002         4.638322297   0   0   0 # CT
      815      14   2    0.060000        21.599561184        12.101957443         3.849769630   -1   0   0 # HC
      816      14   2    0.060000         1.129738774        10.924664167         4.686180211   0   0   0 # HC
      817      14   1   -0.120000         1.394159247        10.582144837         4.318692354   0   0   0 # CT
      818      14   2    0.060000         1.154743848         9.845425058         3.551864972   0   0   0 # HC
      819      14   2    0.060000         2.272610804        11.204592106         4.148450585   0   0   0 # HC
      820      14   1   -0.120000         1.516607975         9.369055626         5.241330893   0   0   0 # CT
      821      14   2    0.060000         0.964594404         8.520434776         4.837321400   0   0   0 # HC
      822      14   2    0.060000         0.533353057         8.957485720         5.469190453   0   0   0 # HC
      823      14   1   -0.120000         0.313289885         9.320814534         6.183423973   0   0   0 # CT
      824      14   2    0.060000        21.349819170        10.042182628         5.877735177   -1   0   0 # HC
      825      14   2    0.060000        21.176793588         9.280484721         5.617729073   -1   0   0 # HC
      826      14   1   -0.120000         0.716834755         9.142281934         7.647363401   0   0   0 # CT
      827      14   2    0.060000         1.593979200         9.745502606         7.881548037   0   0   0 # HC
      828      14   2    0.060000         0.191219452         8.296999912         8.091578277   0   0   0 # HC
      829      14   1   -0.120000        21.441940938         9.758155774         8.550287485   -1   0   0 # CT
      830      14   2    0.060000        20.443976674         9.486491275         8.206244278   -1   0   0 # HC
      831      14   2    0.060000        21.242759994         9.113653326         9.406467108   -1   0   0 # HC
      832      14   1   -0.120000        20.942763468        11.109108958         8.036878928   -1   0   0 # CT
      833      14   2    0.060000        21.060172883        11.177552693         6.955384367   -1   0   0 # HC
      834      14   2    0.060000        21.257785232        11.913966739         8.701006356   -1   0   0 # HC
      835      14   1   -0.120000        19.596326555        10.923134774         7.336620231   -1   0   0 # CT
      836      14   2    0.060000        18.787966547        10.863779050         8.065407576   -1   0   0 # HC
      837      14   2    0.060000        19.738066529        10.554159334         6.320811733   -1   0   0 # HC
      838      14   1   -0.120000        19.452410823        11.799751507         6.092163576   -1   0   0 # CT
      839      14   2    0.060000        20.267001373        12.521588003         6.033050907   -1   0   0 # HC
      840      14   2    0.060000        18.439426092        11.740399818         5.694119216   -1   0   0 # HC
      841      15   1   -0.120000         4.169495833         4.289732758         4.633640135   0   0   0 # CT
      842      15   2    0.060000         3.732684882         5.219738001         4.997489612   0   0   0 # HC
      843      15   2    0.060000         4.117156879         3.263587450         4.997489612   0   0   0 # HC
      844      15   1   -0.120000         5.300025947         5.183737236         5.144030823   0   0   0 # CT
      845      15   2    0.060000         5.061319641         6.235324928         4.985025711   0   0   0 # HC
      846      15   2    0.060000         5.244160680         5.295128021         6.226884075   0   0   0 # HC
      847      15   1   -0.120000         6.517787912         5.037965479         4.230987893   0   0   0 # CT
      848      15   2    0.060000         7.421596388         4.873098750         4.817544967   0   0   0 # HC
      849      15   2    0.060000         6.950985747         4.041947236         4.322570078   0   0   0 # HC
      850      15   1   -0.120000         7.504669486         6.197031066         4.374070815   0   0   0 # CT
      851      15   2    0.060000         7.089427896         6.980606290         5.007856497   0   0   0 # HC
      852      15   2    0.060000         8.517201711         5.824121728         4.528398775   0   0   0 # HC
      853      15   1   -0.120000         6.880710019         7.471799643         3.805317212   0   0   0 # CT
      854      15   2    0.060000         5.900006531         7.650595328         4.246171804   0   0   0 # HC
      855      15   2    0.060000         7.376610114         7.763616209         2.879560123   0   0   0 # HC
      856      15   1   -0.120000         6.092609850         7.220083153         2.519479769   0   0   0 # CT
      857      15   2    0.060000         6.407011466         7.907398669         1.734082414   0   0   0 # HC
      858      15   2    0.060000         5.349552996         6.436953967         2.670062608   0   0   0 # HC
      859      15   1   -0.120000         6.899156166         6.305232987         1.597322942   0   0   0 # CT
      860      15   2    0.060000         7.525606805         6.891355214         0.924924004   0   0   0 # HC
      861      15   2    0.060000         6.238324996         5.747996289         0.933327891   0   0   0 # HC
      862      15   1   -0.120000         8.367142534         6.196428022         2.010866775   0   0   0 # CT
      863      15   2    0.060000         8.580481953         5.208104869         2.418056705   0   0   0 # HC
      864      15   2    0.060000         8.645179642         7.022251358         2.665703537   0   0   0 # HC
      865      15   1   -0.120000         9.247980801         6.160108178         0.761608669   0   0   0 # CT
      866      15   2    0.060000         8.872311678         5.428325047         0.046440046   0   0   0 # HC
      867      15   2    0.060000         9.469717515         7.170154809         0.417023943   0   0   0 # HC
      868      15   1   -0.120000        10.740571729         6.202131807         1.090618299   0   0   0 # CT
      869      15   2    0.060000        11.336732920         5.984763034         0.204366274   0   0   0 # HC
      870      15   2    0.060000        10.901459426         6.102192223         2.164036776   0   0   0 # HC
      871      15   1   -0.120000        11.117182953         4.968429703         1.911583647   0   0   0 # CT
      872      15   2    0.060000        12.140222821         4.659970045         1.696311568   0   0   0 # HC
      873      15   2    0.060000        11.006044716         5.166420996         2.977673578   0   0   0 # HC
      874      15   1   -0.120000         9.898867847         4.148332367         2.337012446   0   0   0 # CT
      875      15   2    0.060000         9.283254518         4.709302789         3.040171329   0   0   0 # HC
      876      15   2    0.060000         9.752372190         3.300488407         1.667834113   0   0   0 # HC
      877      15   1   -0.120000        10.246394524         3.323572273         3.576704745   0   0   0 # CT
      878      15   2    0.060000        10.263446618         2.259846348         3.339436157   0   0   0 # HC
      879      15   2    0.060000        10.278943468         3.956249987         4.463699377   0   0   0 # HC
      880      15   1   -0.120000         9.008378669         2.883020172         4.358415426   0   0   0 # CT
      881      15   2    0.060000         8.116375838         3.383162771         3.981204173   0   0   0 # HC
      882      15   2    0.060000         9.092875459         1.838113426         4.656962213   0   0   0 # HC
      883      15   1   -0.120000         9.327637421         2.867568934         5.853633172   0   0   0 # CT
      884      15   2    0.060000         8.525408366         3.336061377         6.423758926   0   0   0 # HC
      885      15   2    0.060000         9.176596982         1.871439800         6.269582130   0   0   0 # HC
      886      15   1   -0.120000         8.282140122         2.109697987         6.672417653   0   0   0 # CT
      887      15   2    0.060000         7.722784890         2.793641023         7.310730779   0   0   0 # HC
      888      15   2    0.060000         7.277777871         2.322048120         6.305997281   0   0   0 # HC
      889      15   1   -0.120000         8.843945605         1.805822378         8.061617140   0   0   0 # CT
      890      15   2    0.060000         8.723213748         2.664327246         8.722293469   0   0   0 # HC
      891      15   2    0.060000         9.720101804         2.421203419         8.265961184   0   0   0 # HC
      892      15   1   -0.120000         9.298447222         0.353449883         8.209547581   0   0   0 # CT
      893      15   2    0.060000         9.124492018        21.593785324         7.287097245   0   -1   0 # HC
      894      15   2    0.060000         9.818866453         0.207097253         9.156038326   0   0   0 # HC
      895      15   1   -0.120000         8.258382285        21.366881670         9.013464724   0   -1   0 # CT
      896      15   2    0.060000         7.320674112         0.125346416         9.070089708   0   0   0 # HC
      897      15   2    0.060000         8.743670012        20.680943073         9.707787461   0   -1   0 # HC
      898      15   1   -0.120000         7.688042300         0.378623626        10.180846190   0   0   0 # CT
      899      15   2    0.060000         6.600133808         0.313586097        10.198880402   0   0   0 # HC
      900      15   2    0.060000         8.343427791         1.213405877        10.429258051   0   0   0 # HC
      901      16   1   -0.120000        17.397999748         9.627057595        19.184644582   0   0   0 # CT
      902      16   2    0.060000        16.479541447         9.166462429        19.548494058   0   0   0 # HC
      903      16   2    0.060000        16.515537409        10.153340578        19.548494058   0   0   0 # HC
      904      16   1   -0.120000        17.945101149         8.293632530        19.695035269   0   0   0 # CT
      905      16   2    0.060000        17.198983073         7.505866291        19.590957558   0   0   0 # HC
      906      16   2    0.060000        19.013928524         8.367206906        19.895771050   0   0   0 # HC
      907      16   1   -0.120000        18.127727349         7.333298428        18.519345224   0   0   0 # CT
      908      16   2    0.060000        18.656523552         6.433953081        18.835023102   0   0   0 # HC
      909      16   2    0.060000        17.167855780         7.103710998        18.056704777   0   0   0 # HC
      910      16   1   -0.120000        17.132974386         6.172430724        18.545683733   0   0   0 # CT
      911      16   2    0.060000        17.615836239         5.244259317        18.240000449   0   0   0 # HC
      912      16   2    0.060000        16.221195948         6.458169121        19.070196504   0   0   0 # HC
      913      16   1   -0.120000        17.748838978         4.989412354        19.293359692   0   0   0 # CT
      914      16   2    0.060000        18.677737811         4.674509843        18.817877445   0   0   0 # HC
      915      16   2    0.060000        16.977505049         4.411992388        19.802996968   0   0   0 # HC
      916      16   1   -0.120000        18.580757528         5.422962306        20.500748182   0   0   0 # CT
      917      16   2    0.060000        19.326783936         4.667074291        20.746060041   0   0   0 # HC
      918      16   2    0.060000        19.320082701         6.169695765        20.211114916   0   0   0 # HC
      919      16   1   -0.120000        17.811185751         6.475449705        21.299416170   0   0   0 # CT
      920      16   2    0.060000        18.385102802         6.794665258         0.375027033   0   0   1 # HC
      921      16   2    0.060000        16.985994408         6.017771681         0.050682456   0   0   1 # HC
      922      16   1   -0.120000        17.832338485         7.852349075        20.634930138   0   0   0 # CT
      923      16   2    0.060000        17.070986548         8.500984385        21.068191564   0   0   0 # HC
      924      16   2    0.060000        18.849583950         8.240785114        20.585644151   0   0   0 # HC
      925      16   1   -0.120000        17.839399413         8.938399583        21.711166840   0   0   0 # CT
      926      16   2    0.060000        18.855093971         9.284579145         0.108198006   0   0   1 # HC
      927      16   2    0.060000        16.821560578         9.217668263         0.189060542   0   0   1 # HC
      928      16   1   -0.120000        18.421756615         8.450434912         1.243696161   0   0   1 # CT
      929      16   2    0.060000        17.868061918         7.587342816         1.613282706   0   0   1 # HC
      930      16   2    0.060000        18.096296765         9.088621760         2.065215140   0   0   1 # HC
      931      16   1   -0.120000        19.770271818         9.128000923         1.489159089   0   0   1 # CT
      932      16   2    0.060000        20.287967054         9.308403528         0.547062202   0   0   1 # HC
      933      16   2    0.060000        20.525139108         8.393446914         1.769704598   0   0   1 # HC
      934      16   1   -0.120000        19.665698160        10.652876279         1.529908310   0   0   1 # CT
      935      16   2    0.060000        20.649514037        11.103142928         1.662068315   0   0   1 # HC
      936      16   2    0.060000        18.813773501        10.964634662         2.134169085   0   0   1 # HC
      937      16   1   -0.120000        19.630790756        11.123388070         2.984295166   0   0   1 # CT
      938      16   2    0.060000        18.771883657        11.771319240         3.159120204   0   0   1 # HC
      939      16   2    0.060000        19.782854071        12.201056381         3.044359789   0   0   1 # HC
      940      16   1   -0.120000        21.011691980        11.114293684         3.640702130   0   0   1 # CT
      941      16   2    0.060000        21.400631512        10.098134612         3.705869464   0   0   1 # HC
      942      16   2    0.060000        21.743935979        10.634796653         2.991085841   0   0   1 # HC
      943      16   1   -0.120000        21.169967813        12.359437246         4.513861492   0   0   1 # CT
      944      16   2    0.060000        20.296159911        12.497009929         5.150755131   0   0   1 # HC
      945      16   2    0.060000        21.035488781        12.111348805         5.566699331   0   0   1 # HC
      946      16   1   -0.120000        20.366228899        13.551350469         3.993104708   0   0   1 # CT
      947      16   2    0.060000        19.409780076        13.222930245         3.586354409   0   0   1 # HC
      948      16   2    0.060000        19.658723020        13.897673788         4.746494109   0   0   1 # HC
      949      16   1   -0.120000        21.159771319        14.261949457         2.896208858   0   0   1 # CT
      950      16   2    0.060000        20.652565689        15.174665138         2.583490880   0   0   1 # HC
      951      16   2    0.060000         0.436073867        14.191945638         3.088345359   1   0   1 # HC
      952      16   1   -0.120000         0.050508787        13.287216350         1.937876768   1   0   1 # CT
      953      16   2    0.060000        21.785930198        13.650243005         0.911796932   0   0   1 # HC
      954      16   2    0.060000         0.173879319        12.310189092         2.405099893   1   0   1 # HC
      955      16   1   -0.120000        20.957639522        12.057806994         1.739767999   0   0   1 # CT
      956      16   2    0.060000        20.311626590        12.184813487         0.871069752   0   0   1 # HC
      957      16   2    0.060000        21.470751829        11.304708375         1.141722657   0   0   1 # HC
      958      16   1   -0.120000        19.483827088        12.418094104         1.550265734   0   0   1 # CT
      959      16   2    0.060000        19.238859279        12.493888752         0.490857435   0   0   1 # HC
      960      16   2    0.060000        18.842180400        11.687549908         2.042906278   0   0   1 # HC
      961      17   1   -0.120000        21.684085541         0.821302735        19.655606407   0   0   0 # CT
      962      17   2    0.060000         0.494640414        21.785097366        20.019455883   1   -1   0 # HC
      963      17   2    0.060000         0.489527208         1.655551662        20.019455883   1   0   0 # HC
      964      17   1   -0.120000        21.364845586        21.210146998        20.165997095   0   -1   0 # CT
      965      17   2    0.060000        21.095941073        20.552040023        19.339749207   0   -1   0 # HC
      966      17   2    0.060000         0.285999961        20.905903290        20.929933290   1   -1   0 # HC
      967      17   1   -0.120000        20.037589435        21.231921285        20.924784278   0   -1   0 # CT
      968      17   2    0.060000        20.002934448        20.431192203        21.663521017   0   -1   0 # HC
      969      17   2    0.060000        19.561892498         0.414716154        20.841040813   0   0   0 # HC
      970      17   1   -0.120000        20.075939882         0.344992324         0.360468809   0   0   1 # CT
      971      17   2    0.060000        19.792603306         1.363902404         0.096569903   0   0   1 # HC
      972      17   2    0.060000        19.146374453         0.268836944         0.924568508   0   0   1 # HC
      973      17   1   -0.120000        21.336550245         1.209227867         0.318049017   0   0   1 # CT
      974      17   2    0.060000         0.039051461         1.118745242        21.146443176   1   0   0 # HC
      975      17   2    0.060000        21.568966154         1.600479747         1.308505887   0   0   1 # HC
      976      17   1   -0.120000        21.106332378         2.555180378        21.424458997   0   0   0 # CT
      977      17   2    0.060000        20.972039796         3.346714793         0.367366285   0   0   1 # HC
      978      17   2    0.060000        20.444038950         2.440972575        20.566307499   0   0   0 # HC
      979      17   1   -0.120000         0.469112100         2.843839198        20.467598057   1   0   0 # CT
      980      17   2    0.060000         1.008136638         3.740249466        20.774194175   1   0   0 # HC
      981      17   2    0.060000         0.384354315         3.848090410        20.052392538   1   0   0 # HC
      982      17   1   -0.120000         1.602696012         1.824874271        20.588175791   1   0   0 # CT
      983      17   2    0.060000         2.543481288         2.252295080        20.241283132   1   0   0 # HC
      984      17   2    0.060000         1.549491907         1.300443119        21.542241455   1   0   0 # HC
      985      17   1   -0.120000         1.981094098         1.315364508        19.197113000   1   0   0 # CT
      986      17   2    0.060000         1.457830824         1.879118395        18.424793701   1   0   0 # HC
      987      17   2    0.060000         1.488879280         0.365670499        18.987575741   1   0   0 # HC
      988      17   1   -0.120000         2.677441483        21.749045765        19.236349377   1   -1   0 # CT
      989      17   2    0.060000         3.594906876        21.768662174        18.648155148   1   -1   0 # HC
      990      17   2    0.060000         2.343514173        21.170025196        20.097353286   1   -1   0 # HC
      991      17   1   -0.120000         4.021127402         0.089504031        19.953411178   1   0   0 # CT
      992      17   2    0.060000         4.001714239        21.361005757        20.909632688   1   -1   0 # HC
      993      17   2    0.060000         3.873412433         0.321227534        21.008202393   1   0   0 # HC
      994      17   1   -0.120000         4.826200313        20.583977666        19.947340061   1   -1   0 # CT
      995      17   2    0.060000         4.956321633        20.206628050        20.961625873   1   -1   0 # HC
      996      17   2    0.060000         4.842085860        20.145273307        18.949649661   1   -1   0 # HC
      997      17   1   -0.120000         6.156101458        20.803921673        20.669024602   1   -1   0 # CT
      998      17   2    0.060000         6.710976289        21.623798778        20.212937490   1   -1   0 # HC
      999      17   2    0.060000         6.070803139        20.539622544        21.723050298   1   -1   0 # HC
      1000      17   1   -0.120000         7.212335756        19.765699360        20.289150233   1   -1   0 # CT
      1001      17   2    0.060000         6.749054373        18.798765957        20.092910189   1   -1   0 # HC
      1002      17   2    0.060000         7.750806818        20.073991314        19.392988982   1   -1   0 # HC
      1003      17   1   -0.120000         6.662407967        18.361753263        20.542834651   1   -1   0 # CT
      1004      17   2    0.060000         5.572633633        18.372517120        20.562226433   1   -1   0 # HC
      1005      17   2    0.060000         6.749331216        18.098581893        21.597009768   1   -1   0 # HC
      1006      17   1   -0.120000         6.942756717        17.400531316        19.387283723   1   -1   0 # CT
      1007      17   2    0.060000         6.432690111        17.727977321        18.481352616   1   -1   0 # HC
      1008      17   2    0.060000         8.012316596        17.342279761        19.185421343   1   -1   0 # HC
      1009      17   1   -0.120000         5.809298534        16.379282785        19.286462166   1   -1   0 # CT
      1010      17   2    0.060000         5.642307241        16.090212361        18.248843644   1   -1   0 # HC
      1011      17   2    0.060000         5.627121399        15.909221125        20.252874876   1   -1   0 # HC
      1012      17   1   -0.120000         4.465669003        16.941160996        19.752073117   1   -1   0 # CT
      1013      17   2    0.060000         4.423665953        16.987410509        20.840281151   1   -1   0 # HC
      1014      17   2    0.060000         4.604266182        17.886880493        20.276005798   1   -1   0 # HC
      1015      17   1   -0.120000         3.421442988        16.743962857        18.652734259   1   -1   0 # CT
      1016      17   2    0.060000         2.886777637        17.673637942        18.457959522   1   -1   0 # HC
      1017      17   2    0.060000         3.848498180        16.957596766        17.672895284   1   -1   0 # HC
      1018      17   1   -0.120000         3.909074554        15.822644517        17.534150791   1   -1   0 # CT
      1019      17   2    0.060000         4.009754441        16.372569173        16.598444410   1   -1   0 # HC
      1020      17   2    0.060000         3.102003418        15.177447863        17.187080974   1   -1   0 # HC
      1021      18   1   -0.120000        10.765002349        11.687363256         3.793889767   0   0   0 # CT
      1022      18   2    0.060000        10.576133223        12.697334548         4.157739243   0   0   0 # HC
      1023      18   2    0.060000        10.793358745        10.660275395         4.157739243   0   0   0 # HC
      1024      18   1   -0.120000         9.332654771        11.526980084         4.304280455   0   0   0 # CT
      1025      18   2    0.060000         8.911731511        10.575827114         3.978348504   0   0   0 # HC
      1026      18   2    0.060000         9.248556732        11.877976447         5.332788633   0   0   0 # HC
      1027      18   1   -0.120000         8.489302157        12.714758652         3.839759796   0   0   0 # CT
      1028      18   2    0.060000         9.094288502        13.619960517         3.787787617   0   0   0 # HC
      1029      18   2    0.060000         7.465957086        12.626825808         4.204633307   0   0   0 # HC
      1030      18   1   -0.120000         8.475663423        13.860542809         4.852100475   0   0   0 # CT
      1031      18   2    0.060000         8.641815082        13.484683349         5.861666368   0   0   0 # HC
      1032      18   2    0.060000         7.452770221        14.153517267         5.088649548   0   0   0 # HC
      1033      18   1   -0.120000         9.719262471        14.728513366         4.657345450   0   0   0 # CT
      1034      18   2    0.060000         9.439427563        15.757254980         4.430446540   0   0   0 # HC
      1035      18   2    0.060000        10.595613871        14.108921854         4.467044157   0   0   0 # HC
      1036      18   1   -0.120000        10.911682465        14.244771227         5.483159656   0   0   0 # CT
      1037      18   2    0.060000        11.342088811        13.343321258         5.046996463   0   0   0 # HC
      1038      18   2    0.060000        10.726802024        14.388551902         6.547700092   0   0   0 # HC
      1039      18   1   -0.120000        12.091022780        15.197129517         5.283131888   0   0   0 # CT
      1040      18   2    0.060000        12.095883687        15.970922209         6.050804502   0   0   0 # HC
      1041      18   2    0.060000        12.660188350        14.924240625         4.394491237   0   0   0 # HC
      1042      18   1   -0.120000        11.663120533        16.664246934         5.235099040   0   0   0 # CT
      1043      18   2    0.060000        11.758927878        17.060634675         4.224258938   0   0   0 # HC
      1044      18   2    0.060000        11.765065201        17.127646884         6.216408253   0   0   0 # HC
      1045      18   1   -0.120000        10.321958642        16.781268079         4.510232272   0   0   0 # CT
      1046      18   2    0.060000        10.450200703        17.254241029         3.536604744   0   0   0 # HC
      1047      18   2    0.060000         9.706234346        17.558851350         4.962280774   0   0   0 # HC
      1048      18   1   -0.120000        10.105497399        18.161472406         3.888925948   0   0   0 # CT
      1049      18   2    0.060000         9.875638303        18.074222918         2.827016196   0   0   0 # HC
      1050      18   2    0.060000         9.073150125        18.485600096         4.020456728   0   0   0 # HC
      1051      18   1   -0.120000        10.033241151        19.213821965         4.995804641   0   0   0 # CT
      1052      18   2    0.060000         9.979918106        20.216378352         4.571378740   0   0   0 # HC
      1053      18   2    0.060000        10.812326596        19.964812829         4.864890200   0   0   0 # HC
      1054      18   1   -0.120000        10.438309240        18.661222143         6.362696838   0   0   0 # CT
      1055      18   2    0.060000         9.880007140        17.753630642         6.592210308   0   0   0 # HC
      1056      18   2    0.060000         9.733640020        18.979249487         7.131071681   0   0   0 # HC
      1057      18   1   -0.120000        11.777126199        19.268816977         6.782504731   0   0   0 # CT
      1058      18   2    0.060000        11.630559959        20.251286421         7.231249791   0   0   0 # HC
      1059      18   2    0.060000        11.919444633        20.245040063         6.319002897   0   0   0 # HC
      1060      18   1   -0.120000        12.974736930        18.513688859         6.205139109   0   0   0 # CT
      1061      18   2    0.060000        13.567339121        18.064182994         7.001924601   0   0   0 # HC
      1062      18   2    0.060000        13.890745604        18.785085692         6.729897974   0   0   0 # HC
      1063      18   1   -0.120000        12.598514303        17.047240973         5.991064042   0   0   0 # CT
      1064      18   2    0.060000        13.485852338        16.414603061         6.013435508   0   0   0 # HC
      1065      18   2    0.060000        13.222454062        16.598259115         5.218267518   0   0   0 # HC
      1066      18   1   -0.120000        11.986322951        16.407140151         7.237392123   0   0   0 # CT
      1067      18   2    0.060000        12.024777289        17.094874399         8.082165980   0   0   0 # HC
      1068      18   2    0.060000        11.000945483        16.826153810         7.441251874   0   0   0 # HC
      1069      18   1   -0.120000        12.925753957        16.606195407         8.427218746   0   0   0 # CT
      1070      18   2    0.060000        12.687796764        15.905412489         9.227456007   0   0   0 # HC
      1071      18   2    0.060000        13.697314497        17.338858126         8.190576243   0   0   0 # HC
      1072      18   1   -0.120000        13.522744235        15.292882681         8.933828348   0   0   0 # CT
      1073      18   2    0.060000        13.376079223        14.496284744         8.204430582   0   0   0 # HC
      1074      18   2    0.060000        13.403267077        15.206614558        10.013820487   0   0   0 # HC
      1075      18   1   -0.120000        14.871150718        15.568548667         9.599898329   0   0   0 # CT
      1076      18   2    0.060000        15.199382420        14.704412195        10.177507287   0   0   0 # HC
      1077      18   2    0.060000        15.673265555        15.565332567         8.861859411   0   0   0 # HC
      1078      18   1   -0.120000        14.735023836        16.352692303        10.905436237   0   0   0 # CT
      1079      18   2    0.060000        15.684242375        16.377646458        11.440657179   0   0   0 # HC
      1080      18   2    0.060000        15.524021323        17.099963237        10.990106877   0   0   0 # HC
      1081      19   1   -0.120000         9.939370065         3.548255275        19.180592627   0   0   0 # CT
      1082      19   2    0.060000        10.942268569         3.324853958        19.544442104   0   0   0 # HC
      1083      19   2    0.060000         9.089085486         2.971428010        19.544442104   0   0   0 # HC
      1084      19   1   -0.120000        10.279056818         4.948953406        19.690983315   0   0   0 # CT
      1085      19   2    0.060000         9.453298259         5.636493677        19.507922729   0   0   0 # HC
      1086      19   2    0.060000        11.128442708         4.914939964        20.373249170   0   0   0 # HC
      1087      19   1   -0.120000        10.392446587         4.923069182        21.215553342   0   0   0 # CT
      1088      19   2    0.060000        10.753935457         3.953670589        21.558616258   0   0   0 # HC
      1089      19   2    0.060000        11.296855485         5.435576171        21.543396492   0   0   0 # HC
      1090      19   1   -0.120000         9.538327324         3.826267149         0.057878159   0   0   1 # CT
      1091      19   2    0.060000         8.738278676         3.520763116        21.177915050   0   0   0 # HC
      1092      19   2    0.060000         9.132705234         4.159530260         1.013130178   0   0   1 # HC
      1093      19   1   -0.120000         9.253216456         2.736576540        20.818235633   0   0   0 # CT
      1094      19   2    0.060000        10.130514606         2.555761261        20.197144826   0   0   0 # HC
      1095      19   2    0.060000         8.411082326         3.016738475        20.185448624   0   0   0 # HC
      1096      19   1   -0.120000         7.981106626         1.947076940        21.128506422   0   0   0 # CT
      1097      19   2    0.060000         7.311686732         2.528631785        21.762360482   0   0   0 # HC
      1098      19   2    0.060000         8.136519203         0.882269446        20.954920907   0   0   0 # HC
      1099      19   1   -0.120000         7.556467639         1.156359970        19.890649643   0   0   0 # CT
      1100      19   2    0.060000         7.453182991         1.815809504        19.028931247   0   0   0 # HC
      1101      19   2    0.060000         7.089234015         0.214105287        20.176916744   0   0   0 # HC
      1102      19   1   -0.120000         8.001264838        21.488770947        19.943086793   0   -1   0 # CT
      1103      19   2    0.060000         7.765497341        21.048831589        20.912089914   0   -1   0 # HC
      1104      19   2    0.060000         7.662455472        20.950963570        19.057608708   0   -1   0 # HC
      1105      19   1   -0.120000         9.343959461        21.389477244        20.667761140   0   -1   0 # CT
      1106      19   2    0.060000         9.260638754        21.767205810        21.686818936   0   -1   0 # HC
      1107      19   2    0.060000         9.903974636         0.525201117        20.570510812   0   0   0 # HC
      1108      19   1   -0.120000        10.424089397        20.717621953        19.819368077   0   -1   0 # CT
      1109      19   2    0.060000         9.974588169        20.099818719        19.041957111   0   -1   0 # HC
      1110      19   2    0.060000        11.332138179        20.564292479        20.402495407   0   -1   0 # HC
      1111      19   1   -0.120000        10.784644178        21.623259755        18.641377660   0   -1   0 # CT
      1112      19   2    0.060000        10.086666163         0.662985172        18.568881613   0   0   0 # HC
      1113      19   2    0.060000         9.887678660         0.139753639        18.105716426   0   0   0 # HC
      1114      19   1   -0.120000        12.014520443         0.694416327        18.917339508   0   0   0 # CT
      1115      19   2    0.060000        11.825259496         1.380877842        19.742597578   0   0   0 # HC
      1116      19   2    0.060000        11.725865544         1.732300066        19.083398817   0   0   0 # HC
      1117      19   1   -0.120000        13.166659888         0.245679908        18.017866704   0   0   0 # CT
      1118      19   2    0.060000        14.127273437         0.485219180        18.473873883   0   0   0 # HC
      1119      19   2    0.060000        13.293562488        20.958464604        18.065049477   0   -1   0 # HC
      1120      19   1   -0.120000        14.082672494        21.021096676        18.696505161   0   -1   0 # CT
      1121      19   2    0.060000        14.682937163        20.490374940        17.957508025   0   -1   0 # HC
      1122      19   2    0.060000        14.259236930        21.294520340        19.736776519   0   -1   0 # HC
      1123      19   1   -0.120000        15.387853361        21.702832487        19.108306313   0   -1   0 # CT
      1124      19   2    0.060000        15.861362253        21.164489597        19.929327788   0   -1   0 # HC
      1125      19   2    0.060000        16.189747309        21.450933136        18.414323018   0   -1   0 # HC
      1126      19   1   -0.120000        16.579561304        20.744879947        19.107973901   0   -1   0 # CT
      1127      19   2    0.060000        17.184215312        20.881805584        20.004492111   0   -1   0 # HC
      1128      19   2    0.060000        16.248596230        19.718137743        19.264059020   0   -1   0 # HC
      1129      19   1   -0.120000        16.195335572        19.452006270        19.828174735   0   -1   0 # CT
      1130      19   2    0.060000        17.056305152        18.789328077        19.915861643   0   -1   0 # HC
      1131      19   2    0.060000        15.154874224        19.485564799        20.151306303   0   -1   0 # HC
      1132      19   1   -0.120000        15.735387771        19.692082356        21.266455825   0   -1   0 # CT
      1133      19   2    0.060000        14.702109760        19.371408813        21.399139770   0   -1   0 # HC
      1134      19   2    0.060000        14.807964450        20.264516786        21.283914565   0   -1   0 # HC
      1135      19   1   -0.120000        16.772241469        20.544855745         0.203927129   0   -1   1 # CT
      1136      19   2    0.060000        16.577155912        20.552597729         1.276299120   0   -1   1 # HC
      1137      19   2    0.060000        17.130490192        21.350279087        21.357137997   0   -1   0 # HC
      1138      19   1   -0.120000        16.231397697         0.123995521         0.602515410   0   0   1 # CT
      1139      19   2    0.060000        15.229314135         0.036473126         1.022358672   0   0   1 # HC
      1140      19   2    0.060000        17.037191953         0.767994141         0.954738909   0   0   1 # HC
      1141      20   1   -0.120000         9.571866871         9.914072571        19.426750053   0   0   0 # CT
      1142      20   2    0.060000        10.390941423        10.534419601        19.790599529   0   0   0 # HC
      1143      20   2    0.060000         8.892832115         9.142953022        19.790599529   0   0   0 # HC
      1144      20   1   -0.120000         9.950663610         8.523441284        19.937140741   0   0   0 # CT
      1145      20   2    0.060000         9.062911539         7.902971189        20.059668783   0   0   0 # HC
      1146      20   2    0.060000        11.021877001         8.352470330        19.830506768   0   0   0 # HC
      1147      20   1   -0.120000        10.077108559         7.562642777        18.754466270   0   0   0 # CT
      1148      20   2    0.060000         9.116954977         7.440053328        18.253290726   0   0   0 # HC
      1149      20   2    0.060000        10.131730271         6.530530777        19.100676160   0   0   0 # HC
      1150      20   1   -0.120000         9.105976553         6.385082855        18.844445475   0   0   0 # CT
      1151      20   2    0.060000         8.191234658         6.678545528        19.359447343   0   0   0 # HC
      1152      20   2    0.060000         9.499739733         5.519378381        18.311898461   0   0   0 # HC
      1153      20   1   -0.120000         8.781806029         5.882193480        17.437371651   0   0   0 # CT
      1154      20   2    0.060000         8.703462012         4.795079837        17.425282742   0   0   0 # HC
      1155      20   2    0.060000         9.392615867         6.395306480        16.694588782   0   0   0 # HC
      1156      20   1   -0.120000         8.652111853         7.016729127        16.420587856   0   0   0 # CT
      1157      20   2    0.060000         9.332247025         7.832704181        16.664925450   0   0   0 # HC
      1158      20   2    0.060000         7.735798393         7.582422327        16.589291282   0   0   0 # HC
      1159      20   1   -0.120000         8.608819048         8.357374250        17.154507052   0   0   0 # CT
      1160      20   2    0.060000         9.367966406         8.393575781        17.935842280   0   0   0 # HC
      1161      20   2    0.060000         8.154150930         8.243396224        18.138573063   0   0   0 # HC
      1162      20   1   -0.120000         8.924410638         9.541254578        16.239810207   0   0   0 # CT
      1163      20   2    0.060000         9.962768971         9.851781489        16.355935183   0   0   0 # HC
      1164      20   2    0.060000         8.995950988         9.217527857        15.201454300   0   0   0 # HC
      1165      20   1   -0.120000         9.029757275        10.817648277        17.075012105   0   0   0 # CT
      1166      20   2    0.060000        10.002786702        10.880043050        17.562270380   0   0   0 # HC
      1167      20   2    0.060000         8.525602877        10.693663812        18.033425479   0   0   0 # HC
      1168      20   1   -0.120000        10.261056699        11.653079236        16.723162930   0   0   0 # CT
      1169      20   2    0.060000        10.036167746        12.349460506        15.915339876   0   0   0 # HC
      1170      20   2    0.060000        10.518875542        11.534988488        15.670697245   0   0   0 # HC
      1171      20   1   -0.120000        10.672072892        12.491377811        17.934014775   0   0   0 # CT
      1172      20   2    0.060000        11.753984450        12.473885900        18.065397473   0   0   0 # HC
      1173      20   2    0.060000        10.949188141        13.500185770        17.628051315   0   0   0 # HC
      1174      20   1   -0.120000        10.694964707        11.682499650        19.231332425   0   0   0 # CT
      1175      20   2    0.060000        11.641866871        11.818831309        19.753721142   0   0   0 # HC
      1176      20   2    0.060000        10.264728306        12.257336414        20.051429574   0   0   0 # HC
      1177      20   1   -0.120000        10.702606152        10.189448045        18.901818369   0   0   0 # CT
      1178      20   2    0.060000        10.957476713         9.601578989        19.783606876   0   0   0 # HC
      1179      20   2    0.060000        10.862531582        10.031079326        17.835308545   0   0   0 # HC
      1180      20   1   -0.120000         9.398281073         9.721065980        18.255911774   0   0   0 # CT
      1181      20   2    0.060000         8.604657750         9.647948066        18.999494850   0   0   0 # HC
      1182      20   2    0.060000         9.601464611         9.115589040        17.372614471   0   0   0 # HC
      1183      20   1   -0.120000         8.962888415        10.731521761        17.194189895   0   0   0 # CT
      1184      20   2    0.060000         8.664791335        11.672317267        17.656944632   0   0   0 # HC
      1185      20   2    0.060000         8.572710956        10.221165264        16.313623148   0   0   0 # HC
      1186      20   1   -0.120000         7.510136699        10.539716381        16.757653358   0   0   0 # CT
      1187      20   2    0.060000         7.372830507         9.562658977        16.294397664   0   0   0 # HC
      1188      20   2    0.060000         7.292661885        11.134548277        15.870534584   0   0   0 # HC
      1189      20   1   -0.120000         6.610424285        10.475690429        17.992262304   0   0   0 # CT
      1190      20   2    0.060000         5.797881409        11.198093282        17.914749766   0   0   0 # HC
      1191      20   2    0.060000         5.608406716        10.142550554        17.721931739   0   0   0 # HC
      1192      20   1   -0.120000         7.403336010        10.444758467        19.299234076   0   0   0 # CT
      1193      20   2    0.060000         8.321132863        11.025469450        19.206910241   0   0   0 # HC
      1194      20   2    0.060000         6.890351263         9.839794026        20.046873477   0   0   0 # HC
      1195      20   1   -0.120000         7.668015382         8.993537808        19.701408700   0   0   0 # CT
      1196      20   2    0.060000         8.601428324         8.637106915        19.265751382   0   0   0 # HC
      1197      20   2    0.060000         7.273264472         8.307834837        18.951686649   0   0   0 # HC
      1198      20   1   -0.120000         7.880275491         8.827677707        21.206492443   0   0   0 # CT
      1199      20   2    0.060000         6.924499624         8.802229737        21.729889895   0   0   0 # HC
      1200      20   2    0.060000         8.380715350         7.883938782        21.423325997   0   0   0 # HC

Bonds

     1   1      1      2
     2   1      1      3
     3   2      1      4
     4   1      4      5
     5   1      4      6
     6   2      4      7
     7   1      7      8
     8   1      7      9
     9   2      7      10
     10   1      10      11
     11   1      10      12
     12   2      10      13
     13   1      13      14
     14   1      13      15
     15   2      13      16
     16   1      16      17
     17   1      16      18
     18   2      16      19
     19   1      19      20
     20   1      19      21
     21   2      19      22
     22   1      22      23
     23   1      22      24
     24   2      22      25
     25   1      25      26
     26   1      25      27
     27   2      25      28
     28   1      28      29
     29   1      28      30
     30   2      28      31
     31   1      31      32
     32   1      31      33
     33   2      31      34
     34   1      34      35
     35   1      34      36
     36   2      34      37
     37   1      37      38
     38   1      37      39
     39   2      37      40
     40   1      40      41
     41   1      40      42
     42   2      40      43
     43   1      43      44
     44   1      43      45
     45   2      43      46
     46   1      46      47
     47   1      46      48
     48   2      46      49
     49   1      49      50
     50   1      49      51
     51   2      49      52
     52   1      52      53
     53   1      52      54
     54   2      52      55
     55   1      55      56
     56   1      55      57
     57   2      55      58
     58   1      58      59
     59   1      58      60
     60   1      61      62
     61   1      61      63
     62   2      61      64
     63   1      64      65
     64   1      64      66
     65   2      64      67
     66   1      67      68
     67   1      67      69
     68   2      67      70
     69   1      70      71
     70   1      70      72
     71   2      70      73
     72   1      73      74
     73   1      73      75
     74   2      73      76
     75   1      76      77
     76   1      76      78
     77   2      76      79
     78   1      79      80
     79   1      79      81
     80   2      79      82
     81   1      82      83
     82   1      82      84
     83   2      82      85
     84   1      85      86
     85   1      85      87
     86   2      85      88
     87   1      88      89
     88   1      88      90
     89   2      88      91
     90   1      91      92
     91   1      91      93
     92   2      91      94
     93   1      94      95
     94   1      94      96
     95   2      94      97
     96   1      97      98
     97   1      97      99
     98   2      97      100
     99   1      100      101
     100   1      100      102
     101   2      100      103
     102   1      103      104
     103   1      103      105
     104   2      103      106
     105   1      106      107
     106   1      106      108
     107   2      106      109
     108   1      109      110
     109   1      109      111
     110   2      109      112
     111   1      112      113
     112   1      112      114
     113   2      112      115
     114   1      115      116
     115   1      115      117
     116   2      115      118
     117   1      118      119
     118   1      118      120
     119   1      121      122
     120   1      121      123
     121   2      121      124
     122   1      124      125
     123   1      124      126
     124   2      124      127
     125   1      127      128
     126   1      127      129
     127   2      127      130
     128   1      130      131
     129   1      130      132
     130   2      130      133
     131   1      133      134
     132   1      133      135
     133   2      133      136
     134   1      136      137
     135   1      136      138
     136   2      136      139
     137   1      139      140
     138   1      139      141
     139   2      139      142
     140   1      142      143
     141   1      142      144
     142   2      142      145
     143   1      145      146
     144   1      145      147
     145   2      145      148
     146   1      148      149
     147   1      148      150
     148   2      148      151
     149   1      151      152
     150   1      151      153
     151   2      151      154
     152   1      154      155
     153   1      154      156
     154   2      154      157
     155   1      157      158
     156   1      157      159
     157   2      157      160
     158   1      160      161
     159   1      160      162
     160   2      160      163
     161   1      163      164
     162   1      163      165
     163   2      163      166
     164   1      166      167
     165   1      166      168
     166   2      166      169
     167   1      169      170
     168   1      169      171
     169   2      169      172
     170   1      172      173
     171   1      172      174
     172   2      172      175
     173   1      175      176
     174   1      175      177
     175   2      175      178
     176   1      178      179
     177   1      178      180
     178   1      181      182
     179   1      181      183
     180   2      181      184
     181   1      184      185
     182   1      184      186
     183   2      184      187
     184   1      187      188
     185   1      187      189
     186   2      187      190
     187   1      190      191
     188   1      190      192
     189   2      190      193
     190   1      193      194
     191   1      193      195
     192   2      193      196
     193   1      196      197
     194   1      196      198
     195   2      196      199
     196   1      199      200
     197   1      199      201
     198   2      199      202
     199   1      202      203
     200   1      202      204
     201   2      202      205
     202   1      205      206
     203   1      205      207
     204   2      205      208
     205   1      208      209
     206   1      208      210
     207   2      208      211
     208   1      211      212
     209   1      211      213
     210   2      211      214
     211   1      214      215
     212   1      214      216
     213   2      214      217
     214   1      217      218
     215   1      217      219
     216   2      217      220
     217   1      220      221
     218   1      220      222
     219   2      220      223
     220   1      223      224
     221   1      223      225
     222   2      223      226
     223   1      226      227
     224   1      226      228
     225   2      226      229
     226   1      229      230
     227   1      229      231
     228   2      229      232
     229   1      232      233
     230   1      232      234
     231   2      232      235
     232   1      235      236
     233   1      235      237
     234   2      235      238
     235   1      238      239
     236   1      238      240
     237   1      241      242
     238   1      241      243
     239   2      241      244
     240   1      244      245
     241   1      244      246
     242   2      244      247
     243   1      247      248
     244   1      247      249
     245   2      247      250
     246   1      250      251
     247   1      250      252
     248   2      250      253
     249   1      253      254
     250   1      253      255
     251   2      253      256
     252   1      256      257
     253   1      256      258
     254   2      256      259
     255   1      259      260
     256   1      259      261
     257   2      259      262
     258   1      262      263
     259   1      262      264
     260   2      262      265
     261   1      265      266
     262   1      265      267
     263   2      265      268
     264   1      268      269
     265   1      268      270
     266   2      268      271
     267   1      271      272
     268   1      271      273
     269   2      271      274
     270   1      274      275
     271   1      274      276
     272   2      274      277
     273   1      277      278
     274   1      277      279
     275   2      277      280
     276   1      280      281
     277   1      280      282
     278   2      280      283
     279   1      283      284
     280   1      283      285
     281   2      283      286
     282   1      286      287
     283   1      286      288
     284   2      286      289
     285   1      289      290
     286   1      289      291
     287   2      289      292
     288   1      292      293
     289   1      292      294
     290   2      292      295
     291   1      295      296
     292   1      295      297
     293   2      295      298
     294   1      298      299
     295   1      298      300
     296   1      301      302
     297   1      301      303
     298   2      301      304
     299   1      304      305
     300   1      304      306
     301   2      304      307
     302   1      307      308
     303   1      307      309
     304   2      307      310
     305   1      310      311
     306   1      310      312
     307   2      310      313
     308   1      313      314
     309   1      313      315
     310   2      313      316
     311   1      316      317
     312   1      316      318
     313   2      316      319
     314   1      319      320
     315   1      319      321
     316   2      319      322
     317   1      322      323
     318   1      322      324
     319   2      322      325
     320   1      325      326
     321   1      325      327
     322   2      325      328
     323   1      328      329
     324   1      328      330
     325   2      328      331
     326   1      331      332
     327   1      331      333
     328   2      331      334
     329   1      334      335
     330   1      334      336
     331   2      334      337
     332   1      337      338
     333   1      337      339
     334   2      337      340
     335   1      340      341
     336   1      340      342
     337   2      340      343
     338   1      343      344
     339   1      343      345
     340   2      343      346
     341   1      346      347
     342   1      346      348
     343   2      346      349
     344   1      349      350
     345   1      349      351
     346   2      349      352
     347   1      352      353
     348   1      352      354
     349   2      352      355
     350   1      355      356
     351   1      355      357
     352   2      355      358
     353   1      358      359
     354   1      358      360
     355   1      361      362
     356   1      361      363
     357   2      361      364
     358   1      364      365
     359   1      364      366
     360   2      364      367
     361   1      367      368
     362   1      367      369
     363   2      367      370
     364   1      370      371
     365   1      370      372
     366   2      370      373
     367   1      373      374
     368   1      373      375
     369   2      373      376
     370   1      376      377
     371   1      376      378
     372   2      376      379
     373   1      379      380
     374   1      379      381
     375   2      379      382
     376   1      382      383
     377   1      382      384
     378   2      382      385
     379   1      385      386
     380   1      385      387
     381   2      385      388
     382   1      388      389
     383   1      388      390
     384   2      388      391
     385   1      391      392
     386   1      391      393
     387   2      391      394
     388   1      394      395
     389   1      394      396
     390   2      394      397
     391   1      397      398
     392   1      397      399
     393   2      397      400
     394   1      400      401
     395   1      400      402
     396   2      400      403
     397   1      403      404
     398   1      403      405
     399   2      403      406
     400   1      406      407
     401   1      406      408
     402   2      406      409
     403   1      409      410
     404   1      409      411
     405   2      409      412
     406   1      412      413
     407   1      412      414
     408   2      412      415
     409   1      415      416
     410   1      415      417
     411   2      415      418
     412   1      418      419
     413   1      418      420
     414   1      421      422
     415   1      421      423
     416   2      421      424
     417   1      424      425
     418   1      424      426
     419   2      424      427
     420   1      427      428
     421   1      427      429
     422   2      427      430
     423   1      430      431
     424   1      430      432
     425   2      430      433
     426   1      433      434
     427   1      433      435
     428   2      433      436
     429   1      436      437
     430   1      436      438
     431   2      436      439
     432   1      439      440
     433   1      439      441
     434   2      439      442
     435   1      442      443
     436   1      442      444
     437   2      442      445
     438   1      445      446
     439   1      445      447
     440   2      445      448
     441   1      448      449
     442   1      448      450
     443   2      448      451
     444   1      451      452
     445   1      451      453
     446   2      451      454
     447   1      454      455
     448   1      454      456
     449   2      454      457
     450   1      457      458
     451   1      457      459
     452   2      457      460
     453   1      460      461
     454   1      460      462
     455   2      460      463
     456   1      463      464
     457   1      463      465
     458   2      463      466
     459   1      466      467
     460   1      466      468
     461   2      466      469
     462   1      469      470
     463   1      469      471
     464   2      469      472
     465   1      472      473
     466   1      472      474
     467   2      472      475
     468   1      475      476
     469   1      475      477
     470   2      475      478
     471   1      478      479
     472   1      478      480
     473   1      481      482
     474   1      481      483
     475   2      481      484
     476   1      484      485
     477   1      484      486
     478   2      484      487
     479   1      487      488
     480   1      487      489
     481   2      487      490
     482   1      490      491
     483   1      490      492
     484   2      490      493
     485   1      493      494
     486   1      493      495
     487   2      493      496
     488   1      496      497
     489   1      496      498
     490   2      496      499
     491   1      499      500
     492   1      499      501
     493   2      499      502
     494   1      502      503
     495   1      502      504
     496   2      502      505
     497   1      505      506
     498   1      505      507
     499   2      505      508
     500   1      508      509
     501   1      508      510
     502   2      508      511
     503   1      511      512
     504   1      511      513
     505   2      511      514
     506   1      514      515
     507   1      514      516
     508   2      514      517
     509   1      517      518
     510   1      517      519
     511   2      517      520
     512   1      520      521
     513   1      520      522
     514   2      520      523
     515   1      523      524
     516   1      523      525
     517   2      523      526
     518   1      526      527
     519   1      526      528
     520   2      526      529
     521   1      529      530
     522   1      529      531
     523   2      529      532
     524   1      532      533
     525   1      532      534
     526   2      532      535
     527   1      535      536
     528   1      535      537
     529   2      535      538
     530   1      538      539
     531   1      538      540
     532   1      541      542
     533   1      541      543
     534   2      541      544
     535   1      544      545
     536   1      544      546
     537   2      544      547
     538   1      547      548
     539   1      547      549
     540   2      547      550
     541   1      550      551
     542   1      550      552
     543   2      550      553
     544   1      553      554
     545   1      553      555
     546   2      553      556
     547   1      556      557
     548   1      556      558
     549   2      556      559
     550   1      559      560
     551   1      559      561
     552   2      559      562
     553   1      562      563
     554   1      562      564
     555   2      562      565
     556   1      565      566
     557   1      565      567
     558   2      565      568
     559   1      568      569
     560   1      568      570
     561   2      568      571
     562   1      571      572
     563   1      571      573
     564   2      571      574
     565   1      574      575
     566   1      574      576
     567   2      574      577
     568   1      577      578
     569   1      577      579
     570   2      577      580
     571   1      580      581
     572   1      580      582
     573   2      580      583
     574   1      583      584
     575   1      583      585
     576   2      583      586
     577   1      586      587
     578   1      586      588
     579   2      586      589
     580   1      589      590
     581   1      589      591
     582   2      589      592
     583   1      592      593
     584   1      592      594
     585   2      592      595
     586   1      595      596
     587   1      595      597
     588   2      595      598
     589   1      598      599
     590   1      598      600
     591   1      601      602
     592   1      601      603
     593   2      601      604
     594   1      604      605
     595   1      604      606
     596   2      604      607
     597   1      607      608
     598   1      607      609
     599   2      607      610
     600   1      610      611
     601   1      610      612
     602   2      610      613
     603   1      613      614
     604   1      613      615
     605   2      613      616
     606   1      616      617
     607   1      616      618
     608   2      616      619
     609   1      619      620
     610   1      619      621
     611   2      619      622
     612   1      622      623
     613   1      622      624
     614   2      622      625
     615   1      625      626
     616   1      625      627
     617   2      625      628
     618   1      628      629
     619   1      628      630
     620   2      628      631
     621   1      631      632
     622   1      631      633
     623   2      631      634
     624   1      634      635
     625   1      634      636
     626   2      634      637
     627   1      637      638
     628   1      637      639
     629   2      637      640
     630   1      640      641
     631   1      640      642
     632   2      640      643
     633   1      643      644
     634   1      643      645
     635   2      643      646
     636   1      646      647
     637   1      646      648
     638   2      646      649
     639   1      649      650
     640   1      649      651
     641   2      649      652
     642   1      652      653
     643   1      652      654
     644   2      652      655
     645   1      655      656
     646   1      655      657
     647   2      655      658
     648   1      658      659
     649   1      658      660
     650   1      661      662
     651   1      661      663
     652   2      661      664
     653   1      664      665
     654   1      664      666
     655   2      664      667
     656   1      667      668
     657   1      667      669
     658   2      667      670
     659   1      670      671
     660   1      670      672
     661   2      670      673
     662   1      673      674
     663   1      673      675
     664   2      673      676
     665   1      676      677
     666   1      676      678
     667   2      676      679
     668   1      679      680
     669   1      679      681
     670   2      679      682
     671   1      682      683
     672   1      682      684
     673   2      682      685
     674   1      685      686
     675   1      685      687
     676   2      685      688
     677   1      688      689
     678   1      688      690
     679   2      688      691
     680   1      691      692
     681   1      691      693
     682   2      691      694
     683   1      694      695
     684   1      694      696
     685   2      694      697
     686   1      697      698
     687   1      697      699
     688   2      697      700
     689   1      700      701
     690   1      700      702
     691   2      700      703
     692   1      703      704
     693   1      703      705
     694   2      703      706
     695   1      706      707
     696   1      706      708
     697   2      706      709
     698   1      709      710
     699   1      709      711
     700   2      709      712
     701   1      712      713
     702   1      712      714
     703   2      712      715
     704   1      715      716
     705   1      715      717
     706   2      715      718
     707   1      718      719
     708   1      718      720
     709   1      721      722
     710   1      721      723
     711   2      721      724
     712   1      724      725
     713   1      724      726
     714   2      724      727
     715   1      727      728
     716   1      727      729
     717   2      727      730
     718   1      730      731
     719   1      730      732
     720   2      730      733
     721   1      733      734
     722   1      733      735
     723   2      733      736
     724   1      736      737
     725   1      736      738
     726   2      736      739
     727   1      739      740
     728   1      739      741
     729   2      739      742
     730   1      742      743
     731   1      742      744
     732   2      742      745
     733   1      745      746
     734   1      745      747
     735   2      745      748
     736   1      748      749
     737   1      748      750
     738   2      748      751
     739   1      751      752
     740   1      751      753
     741   2      751      754
     742   1      754      755
     743   1      754      756
     744   2      754      757
     745   1      757      758
     746   1      757      759
     747   2      757      760
     748   1      760      761
     749   1      760      762
     750   2      760      763
     751   1      763      764
     752   1      763      765
     753   2      763      766
     754   1      766      767
     755   1      766      768
     756   2      766      769
     757   1      769      770
     758   1      769      771
     759   2      769      772
     760   1      772      773
     761   1      772      774
     762   2      772      775
     763   1      775      776
     764   1      775      777
     765   2      775      778
     766   1      778      779
     767   1      778      780
     768   1      781      782
     769   1      781      783
     770   2      781      784
     771   1      784      785
     772   1      784      786
     773   2      784      787
     774   1      787      788
     775   1      787      789
     776   2      787      790
     777   1      790      791
     778   1      790      792
     779   2      790      793
     780   1      793      794
     781   1      793      795
     782   2      793      796
     783   1      796      797
     784   1      796      798
     785   2      796      799
     786   1      799      800
     787   1      799      801
     788   2      799      802
     789   1      802      803
     790   1      802      804
     791   2      802      805
     792   1      805      806
     793   1      805      807
     794   2      805      808
     795   1      808      809
     796   1      808      810
     797   2      808      811
     798   1      811      812
     799   1      811      813
     800   2      811      814
     801   1      814      815
     802   1      814      816
     803   2      814      817
     804   1      817      818
     805   1      817      819
     806   2      817      820
     807   1      820      821
     808   1      820      822
     809   2      820      823
     810   1      823      824
     811   1      823      825
     812   2      823      826
     813   1      826      827
     814   1      826      828
     815   2      826      829
     816   1      829      830
     817   1      829      831
     818   2      829      832
     819   1      832      833
     820   1      832      834
     821   2      832      835
     822   1      835      836
     823   1      835      837
     824   2      835      838
     825   1      838      839
     826   1      838      840
     827   1      841      842
     828   1      841      843
     829   2      841      844
     830   1      844      845
     831   1      844      846
     832   2      844      847
     833   1      847      848
     834   1      847      849
     835   2      847      850
     836   1      850      851
     837   1      850      852
     838   2      850      853
     839   1      853      854
     840   1      853      855
     841   2      853      856
     842   1      856      857
     843   1      856      858
     844   2      856      859
     845   1      859      860
     846   1      859      861
     847   2      859      862
     848   1      862      863
     849   1      862      864
     850   2      862      865
     851   1      865      866
     852   1      865      867
     853   2      865      868
     854   1      868      869
     855   1      868      870
     856   2      868      871
     857   1      871      872
     858   1      871      873
     859   2      871      874
     860   1      874      875
     861   1      874      876
     862   2      874      877
     863   1      877      878
     864   1      877      879
     865   2      877      880
     866   1      880      881
     867   1      880      882
     868   2      880      883
     869   1      883      884
     870   1      883      885
     871   2      883      886
     872   1      886      887
     873   1      886      888
     874   2      886      889
     875   1      889      890
     876   1      889      891
     877   2      889      892
     878   1      892      893
     879   1      892      894
     880   2      892      895
     881   1      895      896
     882   1      895      897
     883   2      895      898
     884   1      898      899
     885   1      898      900
     886   1      901      902
     887   1      901      903
     888   2      901      904
     889   1      904      905
     890   1      904      906
     891   2      904      907
     892   1      907      908
     893   1      907      909
     894   2      907      910
     895   1      910      911
     896   1      910      912
     897   2      910      913
     898   1      913      914
     899   1      913      915
     900   2      913      916
     901   1      916      917
     902   1      916      918
     903   2      916      919
     904   1      919      920
     905   1      919      921
     906   2      919      922
     907   1      922      923
     908   1      922      924
     909   2      922      925
     910   1      925      926
     911   1      925      927
     912   2      925      928
     913   1      928      929
     914   1      928      930
     915   2      928      931
     916   1      931      932
     917   1      931      933
     918   2      931      934
     919   1      934      935
     920   1      934      936
     921   2      934      937
     922   1      937      938
     923   1      937      939
     924   2      937      940
     925   1      940      941
     926   1      940      942
     927   2      940      943
     928   1      943      944
     929   1      943      945
     930   2      943      946
     931   1      946      947
     932   1      946      948
     933   2      946      949
     934   1      949      950
     935   1      949      951
     936   2      949      952
     937   1      952      953
     938   1      952      954
     939   2      952      955
     940   1      955      956
     941   1      955      957
     942   2      955      958
     943   1      958      959
     944   1      958      960
     945   1      961      962
     946   1      961      963
     947   2      961      964
     948   1      964      965
     949   1      964      966
     950   2      964      967
     951   1      967      968
     952   1      967      969
     953   2      967      970
     954   1      970      971
     955   1      970      972
     956   2      970      973
     957   1      973      974
     958   1      973      975
     959   2      973      976
     960   1      976      977
     961   1      976      978
     962   2      976      979
     963   1      979      980
     964   1      979      981
     965   2      979      982
     966   1      982      983
     967   1      982      984
     968   2      982      985
     969   1      985      986
     970   1      985      987
     971   2      985      988
     972   1      988      989
     973   1      988      990
     974   2      988      991
     975   1      991      992
     976   1      991      993
     977   2      991      994
     978   1      994      995
     979   1      994      996
     980   2      994      997
     981   1      997      998
     982   1      997      999
     983   2      997      1000
     984   1      1000      1001
     985   1      1000      1002
     986   2      1000      1003
     987   1      1003      1004
     988   1      1003      1005
     989   2      1003      1006
     990   1      1006      1007
     991   1      1006      1008
     992   2      1006      1009
     993   1      1009      1010
     994   1      1009      1011
     995   2      1009      1012
     996   1      1012      1013
     997   1      1012      1014
     998   2      1012      1015
     999   1      1015      1016
     1000   1      1015      1017
     1001   2      1015      1018
     1002   1      1018      1019
     1003   1      1018      1020
     1004   1      1021      1022
     1005   1      1021      1023
     1006   2      1021      1024
     1007   1      1024      1025
     1008   1      1024      1026
     1009   2      1024      1027
     1010   1      1027      1028
     1011   1      1027      1029
     1012   2      1027      1030
     1013   1      1030      1031
     1014   1      1030      1032
     1015   2      1030      1033
     1016   1      1033      1034
     1017   1      1033      1035
     1018   2      1033      1036
     1019   1      1036      1037
     1020   1      1036      1038
     1021   2      1036      1039
     1022   1      1039      1040
     1023   1      1039      1041
     1024   2      1039      1042
     1025   1      1042      1043
     1026   1      1042      1044
     1027   2      1042      1045
     1028   1      1045      1046
     1029   1      1045      1047
     1030   2      1045      1048
     1031   1      1048      1049
     1032   1      1048      1050
     1033   2      1048      1051
     1034   1      1051      1052
     1035   1      1051      1053
     1036   2      1051      1054
     1037   1      1054      1055
     1038   1      1054      1056
     1039   2      1054      1057
     1040   1      1057      1058
     1041   1      1057      1059
     1042   2      1057      1060
     1043   1      1060      1061
     1044   1      1060      1062
     1045   2      1060      1063
     1046   1      1063      1064
     1047   1      1063      1065
     1048   2      1063      1066
     1049   1      1066      1067
     1050   1      1066      1068
     1051   2      1066      1069
     1052   1      1069      1070
     1053   1      1069      1071
     1054   2      1069      1072
     1055   1      1072      1073
     1056   1      1072      1074
     1057   2      1072      1075
     1058   1      1075      1076
     1059   1      1075      1077
     1060   2      1075      1078
     1061   1      1078      1079
     1062   1      1078      1080
     1063   1      1081      1082
     1064   1      1081      1083
     1065   2      1081      1084
     1066   1      1084      1085
     1067   1      1084      1086
     1068   2      1084      1087
     1069   1      1087      1088
     1070   1      1087      1089
     1071   2      1087      1090
     1072   1      1090      1091
     1073   1      1090      1092
     1074   2      1090      1093
     1075   1      1093      1094
     1076   1      1093      1095
     1077   2      1093      1096
     1078   1      1096      1097
     1079   1      1096      1098
     1080   2      1096      1099
     1081   1      1099      1100
     1082   1      1099      1101
     1083   2      1099      1102
     1084   1      1102      1103
     1085   1      1102      1104
     1086   2      1102      1105
     1087   1      1105      1106
     1088   1      1105      1107
     1089   2      1105      1108
     1090   1      1108      1109
     1091   1      1108      1110
     1092   2      1108      1111
     1093   1      1111      1112
     1094   1      1111      1113
     1095   2      1111      1114
     1096   1      1114      1115
     1097   1      1114      1116
     1098   2      1114      1117
     1099   1      1117      1118
     1100   1      1117      1119
     1101   2      1117      1120
     1102   1      1120      1121
     1103   1      1120      1122
     1104   2      1120      1123
     1105   1      1123      1124
     1106   1      1123      1125
     1107   2      1123      1126
     1108   1      1126      1127
     1109   1      1126      1128
     1110   2      1126      1129
     1111   1      1129      1130
     1112   1      1129      1131
     1113   2      1129      1132
     1114   1      1132      1133
     1115   1      1132      1134
     1116   2      1132      1135
     1117   1      1135      1136
     1118   1      1135      1137
     1119   2      1135      1138
     1120   1      1138      1139
     1121   1      1138      1140
     1122   1      1141      1142
     1123   1      1141      1143
     1124   2      1141      1144
     1125   1      1144      1145
     1126   1      1144      1146
     1127   2      1144      1147
     1128   1      1147      1148
     1129   1      1147      1149
     1130   2      1147      1150
     1131   1      1150      1151
     1132   1      1150      1152
     1133   2      1150      1153
     1134   1      1153      1154
     1135   1      1153      1155
     1136   2      1153      1156
     1137   1      1156      1157
     1138   1      1156      1158
     1139   2      1156      1159
     1140   1      1159      1160
     1141   1      1159      1161
     1142   2      1159      1162
     1143   1      1162      1163
     1144   1      1162      1164
     1145   2      1162      1165
     1146   1      1165      1166
     1147   1      1165      1167
     1148   2      1165      1168
     1149   1      1168      1169
     1150   1      1168      1170
     1151   2      1168      1171
     1152   1      1171      1172
     1153   1      1171      1173
     1154   2      1171      1174
     1155   1      1174      1175
     1156   1      1174      1176
     1157   2      1174      1177
     1158   1      1177      1178
     1159   1      1177      1179
     1160   2      1177      1180
     1161   1      1180      1181
     1162   1      1180      1182
     1163   2      1180      1183
     1164   1      1183      1184
     1165   1      1183      1185
     1166   2      1183      1186
     1167   1      1186      1187
     1168   1      1186      1188
     1169   2      1186      1189
     1170   1      1189      1190
     1171   1      1189      1191
     1172   2      1189      1192
     1173   1      1192      1193
     1174   1      1192      1194
     1175   2      1192      1195
     1176   1      1195      1196
     1177   1      1195      1197
     1178   2      1195      1198
     1179   1      1198      1199
     1180   1      1198      1200

Angles

     1   1      2      1      3
     2   2      2      1      4
     3   2      3      1      4
     4   2      1      4      5
     5   2      1      4      6
     6   3      1      4      7
     7   1      5      4      6
     8   2      5      4      7
     9   2      6      4      7
     10   2      4      7      8
     11   2      4      7      9
     12   3      4      7      10
     13   1      8      7      9
     14   2      8      7      10
     15   2      9      7      10
     16   2      7      10      11
     17   2      7      10      12
     18   3      7      10      13
     19   1      11      10      12
     20   2      11      10      13
     21   2      12      10      13
     22   2      10      13      14
     23   2      10      13      15
     24   3      10      13      16
     25   1      14      13      15
     26   2      14      13      16
     27   2      15      13      16
     28   2      13      16      17
     29   2      13      16      18
     30   3      13      16      19
     31   1      17      16      18
     32   2      17      16      19
     33   2      18      16      19
     34   2      16      19      20
     35   2      16      19      21
     36   3      16      19      22
     37   1      20      19      21
     38   2      20      19      22
     39   2      21      19      22
     40   2      19      22      23
     41   2      19      22      24
     42   3      19      22      25
     43   1      23      22      24
     44   2      23      22      25
     45   2      24      22      25
     46   2      22      25      26
     47   2      22      25      27
     48   3      22      25      28
     49   1      26      25      27
     50   2      26      25      28
     51   2      27      25      28
     52   2      25      28      29
     53   2      25      28      30
     54   3      25      28      31
     55   1      29      28      30
     56   2      29      28      31
     57   2      30      28      31
     58   2      28      31      32
     59   2      28      31      33
     60   3      28      31      34
     61   1      32      31      33
     62   2      32      31      34
     63   2      33      31      34
     64   2      31      34      35
     65   2      31      34      36
     66   3      31      34      37
     67   1      35      34      36
     68   2      35      34      37
     69   2      36      34      37
     70   2      34      37      38
     71   2      34      37      39
     72   3      34      37      40
     73   1      38      37      39
     74   2      38      37      40
     75   2      39      37      40
     76   2      37      40      41
     77   2      37      40      42
     78   3      37      40      43
     79   1      41      40      42
     80   2      41      40      43
     81   2      42      40      43
     82   2      40      43      44
     83   2      40      43      45
     84   3      40      43      46
     85   1      44      43      45
     86   2      44      43      46
     87   2      45      43      46
     88   2      43      46      47
     89   2      43      46      48
     90   3      43      46      49
     91   1      47      46      48
     92   2      47      46      49
     93   2      48      46      49
     94   2      46      49      50
     95   2      46      49      51
     96   3      46      49      52
     97   1      50      49      51
     98   2      50      49      52
     99   2      51      49      52
     100   2      49      52      53
     101   2      49      52      54
     102   3      49      52      55
     103   1      53      52      54
     104   2      53      52      55
     105   2      54      52      55
     106   2      52      55      56
     107   2      52      55      57
     108   3      52      55      58
     109   1      56      55      57
     110   2      56      55      58
     111   2      57      55      58
     112   2      55      58      59
     113   2      55      58      60
     114   1      59      58      60
     115   1      62      61      63
     116   2      62      61      64
     117   2      63      61      64
     118   2      61      64      65
     119   2      61      64      66
     120   3      61      64      67
     121   1      65      64      66
     122   2      65      64      67
     123   2      66      64      67
     124   2      64      67      68
     125   2      64      67      69
     126   3      64      67      70
     127   1      68      67      69
     128   2      68      67      70
     129   2      69      67      70
     130   2      67      70      71
     131   2      67      70      72
     132   3      67      70      73
     133   1      71      70      72
     134   2      71      70      73
     135   2      72      70      73
     136   2      70      73      74
     137   2      70      73      75
     138   3      70      73      76
     139   1      74      73      75
     140   2      74      73      76
     141   2      75      73      76
     142   2      73      76      77
     143   2      73      76      78
     144   3      73      76      79
     145   1      77      76      78
     146   2      77      76      79
     147   2      78      76      79
     148   2      76      79      80
     149   2      76      79      81
     150   3      76      79      82
     151   1      80      79      81
     152   2      80      79      82
     153   2      81      79      82
     154   2      79      82      83
     155   2      79      82      84
     156   3      79      82      85
     157   1      83      82      84
     158   2      83      82      85
     159   2      84      82      85
     160   2      82      85      86
     161   2      82      85      87
     162   3      82      85      88
     163   1      86      85      87
     164   2      86      85      88
     165   2      87      85      88
     166   2      85      88      89
     167   2      85      88      90
     168   3      85      88      91
     169   1      89      88      90
     170   2      89      88      91
     171   2      90      88      91
     172   2      88      91      92
     173   2      88      91      93
     174   3      88      91      94
     175   1      92      91      93
     176   2      92      91      94
     177   2      93      91      94
     178   2      91      94      95
     179   2      91      94      96
     180   3      91      94      97
     181   1      95      94      96
     182   2      95      94      97
     183   2      96      94      97
     184   2      94      97      98
     185   2      94      97      99
     186   3      94      97      100
     187   1      98      97      99
     188   2      98      97      100
     189   2      99      97      100
     190   2      97      100      101
     191   2      97      100      102
     192   3      97      100      103
     193   1      101      100      102
     194   2      101      100      103
     195   2      102      100      103
     196   2      100      103      104
     197   2      100      103      105
     198   3      100      103      106
     199   1      104      103      105
     200   2      104      103      106
     201   2      105      103      106
     202   2      103      106      107
     203   2      103      106      108
     204   3      103      106      109
     205   1      107      106      108
     206   2      107      106      109
     207   2      108      106      109
     208   2      106      109      110
     209   2      106      109      111
     210   3      106      109      112
     211   1      110      109      111
     212   2      110      109      112
     213   2      111      109      112
     214   2      109      112      113
     215   2      109      112      114
     216   3      109      112      115
     217   1      113      112      114
     218   2      113      112      115
     219   2      114      112      115
     220   2      112      115      116
     221   2      112      115      117
     222   3      112      115      118
     223   1      116      115      117
     224   2      116      115      118
     225   2      117      115      118
     226   2      115      118      119
     227   2      115      118      120
     228   1      119      118      120
     229   1      122      121      123
     230   2      122      121      124
     231   2      123      121      124
     232   2      121      124      125
     233   2      121      124      126
     234   3      121      124      127
     235   1      125      124      126
     236   2      125      124      127
     237   2      126      124      127
     238   2      124      127      128
     239   2      124      127      129
     240   3      124      127      130
     241   1      128      127      129
     242   2      128      127      130
     243   2      129      127      130
     244   2      127      130      131
     245   2      127      130      132
     246   3      127      130      133
     247   1      131      130      132
     248   2      131      130      133
     249   2      132      130      133
     250   2      130      133      134
     251   2      130      133      135
     252   3      130      133      136
     253   1      134      133      135
     254   2      134      133      136
     255   2      135      133      136
     256   2      133      136      137
     257   2      133      136      138
     258   3      133      136      139
     259   1      137      136      138
     260   2      137      136      139
     261   2      138      136      139
     262   2      136      139      140
     263   2      136      139      141
     264   3      136      139      142
     265   1      140      139      141
     266   2      140      139      142
     267   2      141      139      142
     268   2      139      142      143
     269   2      139      142      144
     270   3      139      142      145
     271   1      143      142      144
     272   2      143      142      145
     273   2      144      142      145
     274   2      142      145      146
     275   2      142      145      147
     276   3      142      145      148
     277   1      146      145      147
     278   2      146      145      148
     279   2      147      145      148
     280   2      145      148      149
     281   2      145      148      150
     282   3      145      148      151
     283   1      149      148      150
     284   2      149      148      151
     285   2      150      148      151
     286   2      148      151      152
     287   2      148      151      153
     288   3      148      151      154
     289   1      152      151      153
     290   2      152      151      154
     291   2      153      151      154
     292   2      151      154      155
     293   2      151      154      156
     294   3      151      154      157
     295   1      155      154      156
     296   2      155      154      157
     297   2      156      154      157
     298   2      154      157      158
     299   2      154      157      159
     300   3      154      157      160
     301   1      158      157      159
     302   2      158      157      160
     303   2      159      157      160
     304   2      157      160      161
     305   2      157      160      162
     306   3      157      160      163
     307   1      161      160      162
     308   2      161      160      163
     309   2      162      160      163
     310   2      160      163      164
     311   2      160      163      165
     312   3      160      163      166
     313   1      164      163      165
     314   2      164      163      166
     315   2      165      163      166
     316   2      163      166      167
     317   2      163      166      168
     318   3      163      166      169
     319   1      167      166      168
     320   2      167      166      169
     321   2      168      166      169
     322   2      166      169      170
     323   2      166      169      171
     324   3      166      169      172
     325   1      170      169      171
     326   2      170      169      172
     327   2      171      169      172
     328   2      169      172      173
     329   2      169      172      174
     330   3      169      172      175
     331   1      173      172      174
     332   2      173      172      175
     333   2      174      172      175
     334   2      172      175      176
     335   2      172      175      177
     336   3      172      175      178
     337   1      176      175      177
     338   2      176      175      178
     339   2      177      175      178
     340   2      175      178      179
     341   2      175      178      180
     342   1      179      178      180
     343   1      182      181      183
     344   2      182      181      184
     345   2      183      181      184
     346   2      181      184      185
     347   2      181      184      186
     348   3      181      184      187
     349   1      185      184      186
     350   2      185      184      187
     351   2      186      184      187
     352   2      184      187      188
     353   2      184      187      189
     354   3      184      187      190
     355   1      188      187      189
     356   2      188      187      190
     357   2      189      187      190
     358   2      187      190      191
     359   2      187      190      192
     360   3      187      190      193
     361   1      191      190      192
     362   2      191      190      193
     363   2      192      190      193
     364   2      190      193      194
     365   2      190      193      195
     366   3      190      193      196
     367   1      194      193      195
     368   2      194      193      196
     369   2      195      193      196
     370   2      193      196      197
     371   2      193      196      198
     372   3      193      196      199
     373   1      197      196      198
     374   2      197      196      199
     375   2      198      196      199
     376   2      196      199      200
     377   2      196      199      201
     378   3      196      199      202
     379   1      200      199      201
     380   2      200      199      202
     381   2      201      199      202
     382   2      199      202      203
     383   2      199      202      204
     384   3      199      202      205
     385   1      203      202      204
     386   2      203      202      205
     387   2      204      202      205
     388   2      202      205      206
     389   2      202      205      207
     390   3      202      205      208
     391   1      206      205      207
     392   2      206      205      208
     393   2      207      205      208
     394   2      205      208      209
     395   2      205      208      210
     396   3      205      208      211
     397   1      209      208      210
     398   2      209      208      211
     399   2      210      208      211
     400   2      208      211      212
     401   2      208      211      213
     402   3      208      211      214
     403   1      212      211      213
     404   2      212      211      214
     405   2      213      211      214
     406   2      211      214      215
     407   2      211      214      216
     408   3      211      214      217
     409   1      215      214      216
     410   2      215      214      217
     411   2      216      214      217
     412   2      214      217      218
     413   2      214      217      219
     414   3      214      217      220
     415   1      218      217      219
     416   2      218      217      220
     417   2      219      217      220
     418   2      217      220      221
     419   2      217      220      222
     420   3      217      220      223
     421   1      221      220      222
     422   2      221      220      223
     423   2      222      220      223
     424   2      220      223      224
     425   2      220      223      225
     426   3      220      223      226
     427   1      224      223      225
     428   2      224      223      226
     429   2      225      223      226
     430   2      223      226      227
     431   2      223      226      228
     432   3      223      226      229
     433   1      227      226      228
     434   2      227      226      229
     435   2      228      226      229
     436   2      226      229      230
     437   2      226      229      231
     438   3      226      229      232
     439   1      230      229      231
     440   2      230      229      232
     441   2      231      229      232
     442   2      229      232      233
     443   2      229      232      234
     444   3      229      232      235
     445   1      233      232      234
     446   2      233      232      235
     447   2      234      232      235
     448   2      232      235      236
     449   2      232      235      237
     450   3      232      235      238
     451   1      236      235      237
     452   2      236      235      238
     453   2      237      235      238
     454   2      235      238      239
     455   2      235      238      240
     456   1      239      238      240
     457   1      242      241      243
     458   2      242      241      244
     459   2      243      241      244
     460   2      241      244      245
     461   2      241      244      246
     462   3      241      244      247
     463   1      245      244      246
     464   2      245      244      247
     465   2      246      244      247
     466   2      244      247      248
     467   2      244      247      249
     468   3      244      247      250
     469   1      248      247      249
     470   2      248      247      250
     471   2      249      247      250
     472   2      247      250      251
     473   2      247      250      252
     474   3      247      250      253
     475   1      251      250      252
     476   2      251      250      253
     477   2      252      250      253
     478   2      250      253      254
     479   2      250      253      255
     480   3      250      253      256
     481   1      254      253      255
     482   2      254      253      256
     483   2      255      253      256
     484   2      253      256      257
     485   2      253      256      258
     486   3      253      256      259
     487   1      257      256      258
     488   2      257      256      259
     489   2      258      256      259
     490   2      256      259      260
     491   2      256      259      261
     492   3      256      259      262
     493   1      260      259      261
     494   2      260      259      262
     495   2      261      259      262
     496   2      259      262      263
     497   2      259      262      264
     498   3      259      262      265
     499   1      263      262      264
     500   2      263      262      265
     501   2      264      262      265
     502   2      262      265      266
     503   2      262      265      267
     504   3      262      265      268
     505   1      266      265      267
     506   2      266      265      268
     507   2      267      265      268
     508   2      265      268      269
     509   2      265      268      270
     510   3      265      268      271
     511   1      269      268      270
     512   2      269      268      271
     513   2      270      268      271
     514   2      268      271      272
     515   2      268      271      273
     516   3      268      271      274
     517   1      272      271      273
     518   2      272      271      274
     519   2      273      271      274
     520   2      271      274      275
     521   2      271      274      276
     522   3      271      274      277
     523   1      275      274      276
     524   2      275      274      277
     525   2      276      274      277
     526   2      274      277      278
     527   2      274      277      279
     528   3      274      277      280
     529   1      278      277      279
     530   2      278      277      280
     531   2      279      277      280
     532   2      277      280      281
     533   2      277      280      282
     534   3      277      280      283
     535   1      281      280      282
     536   2      281      280      283
     537   2      282      280      283
     538   2      280      283      284
     539   2      280      283      285
     540   3      280      283      286
     541   1      284      283      285
     542   2      284      283      286
     543   2      285      283      286
     544   2      283      286      287
     545   2      283      286      288
     546   3      283      286      289
     547   1      287      286      288
     548   2      287      286      289
     549   2      288      286      289
     550   2      286      289      290
     551   2      286      289      291
     552   3      286      289      292
     553   1      290      289      291
     554   2      290      289      292
     555   2      291      289      292
     556   2      289      292      293
     557   2      289      292      294
     558   3      289      292      295
     559   1      293      292      294
     560   2      293      292      295
     561   2      294      292      295
     562   2      292      295      296
     563   2      292      295      297
     564   3      292      295      298
     565   1      296      295      297
     566   2      296      295      298
     567   2      297      295      298
     568   2      295      298      299
     569   2      295      298      300
     570   1      299      298      300
     571   1      302      301      303
     572   2      302      301      304
     573   2      303      301      304
     574   2      301      304      305
     575   2      301      304      306
     576   3      301      304      307
     577   1      305      304      306
     578   2      305      304      307
     579   2      306      304      307
     580   2      304      307      308
     581   2      304      307      309
     582   3      304      307      310
     583   1      308      307      309
     584   2      308      307      310
     585   2      309      307      310
     586   2      307      310      311
     587   2      307      310      312
     588   3      307      310      313
     589   1      311      310      312
     590   2      311      310      313
     591   2      312      310      313
     592   2      310      313      314
     593   2      310      313      315
     594   3      310      313      316
     595   1      314      313      315
     596   2      314      313      316
     597   2      315      313      316
     598   2      313      316      317
     599   2      313      316      318
     600   3      313      316      319
     601   1      317      316      318
     602   2      317      316      319
     603   2      318      316      319
     604   2      316      319      320
     605   2      316      319      321
     606   3      316      319      322
     607   1      320      319      321
     608   2      320      319      322
     609   2      321      319      322
     610   2      319      322      323
     611   2      319      322      324
     612   3      319      322      325
     613   1      323      322      324
     614   2      323      322      325
     615   2      324      322      325
     616   2      322      325      326
     617   2      322      325      327
     618   3      322      325      328
     619   1      326      325      327
     620   2      326      325      328
     621   2      327      325      328
     622   2      325      328      329
     623   2      325      328      330
     624   3      325      328      331
     625   1      329      328      330
     626   2      329      328      331
     627   2      330      328      331
     628   2      328      331      332
     629   2      328      331      333
     630   3      328      331      334
     631   1      332      331      333
     632   2      332      331      334
     633   2      333      331      334
     634   2      331      334      335
     635   2      331      334      336
     636   3      331      334      337
     637   1      335      334      336
     638   2      335      334      337
     639   2      336      334      337
     640   2      334      337      338
     641   2      334      337      339
     642   3      334      337      340
     643   1      338      337      339
     644   2      338      337      340
     645   2      339      337      340
     646   2      337      340      341
     647   2      337      340      342
     648   3      337      340      343
     649   1      341      340      342
     650   2      341      340      343
     651   2      342      340      343
     652   2      340      343      344
     653   2      340      343      345
     654   3      340      343      346
     655   1      344      343      345
     656   2      344      343      346
     657   2      345      343      346
     658   2      343      346      347
     659   2      343      346      348
     660   3      343      346      349
     661   1      347      346      348
     662   2      347      346      349
     663   2      348      346      349
     664   2      346      349      350
     665   2      346      349      351
     666   3      346      349      352
     667   1      350      349      351
     668   2      350      349      352
     669   2      351      349      352
     670   2      349      352      353
     671   2      349      352      354
     672   3      349      352      355
     673   1      353      352      354
     674   2      353      352      355
     675   2      354      352      355
     676   2      352      355      356
     677   2      352      355      357
     678   3      352      355      358
     679   1      356      355      357
     680   2      356      355      358
     681   2      357      355      358
     682   2      355      358      359
     683   2      355      358      360
     684   1      359      358      360
     685   1      362      361      363
     686   2      362      361      364
     687   2      363      361      364
     688   2      361      364      365
     689   2      361      364      366
     690   3      361      364      367
     691   1      365      364      366
     692   2      365      364      367
     693   2      366      364      367
     694   2      364      367      368
     695   2      364      367      369
     696   3      364      367      370
     697   1      368      367      369
     698   2      368      367      370
     699   2      369      367      370
     700   2      367      370      371
     701   2      367      370      372
     702   3      367      370      373
     703   1      371      370      372
     704   2      371      370      373
     705   2      372      370      373
     706   2      370      373      374
     707   2      370      373      375
     708   3      370      373      376
     709   1      374      373      375
     710   2      374      373      376
     711   2      375      373      376
     712   2      373      376      377
     713   2      373      376      378
     714   3      373      376      379
     715   1      377      376      378
     716   2      377      376      379
     717   2      378      376      379
     718   2      376      379      380
     719   2      376      379      381
     720   3      376      379      382
     721   1      380      379      381
     722   2      380      379      382
     723   2      381      379      382
     724   2      379      382      383
     725   2      379      382      384
     726   3      379      382      385
     727   1      383      382      384
     728   2      383      382      385
     729   2      384      382      385
     730   2      382      385      386
     731   2      382      385      387
     732   3      382      385      388
     733   1      386      385      387
     734   2      386      385      388
     735   2      387      385      388
     736   2      385      388      389
     737   2      385      388      390
     738   3      385      388      391
     739   1      389      388      390
     740   2      389      388      391
     741   2      390      388      391
     742   2      388      391      392
     743   2      388      391      393
     744   3      388      391      394
     745   1      392      391      393
     746   2      392      391      394
     747   2      393      391      394
     748   2      391      394      395
     749   2      391      394      396
     750   3      391      394      397
     751   1      395      394      396
     752   2      395      394      397
     753   2      396      394      397
     754   2      394      397      398
     755   2      394      397      399
     756   3      394      397      400
     757   1      398      397      399
     758   2      398      397      400
     759   2      399      397      400
     760   2      397      400      401
     761   2      397      400      402
     762   3      397      400      403
     763   1      401      400      402
     764   2      401      400      403
     765   2      402      400      403
     766   2      400      403      404
     767   2      400      403      405
     768   3      400      403      406
     769   1      404      403      405
     770   2      404      403      406
     771   2      405      403      406
     772   2      403      406      407
     773   2      403      406      408
     774   3      403      406      409
     775   1      407      406      408
     776   2      407      406      409
     777   2      408      406      409
     778   2      406      409      410
     779   2      406      409      411
     780   3      406      409      412
     781   1      410      409      411
     782   2      410      409      412
     783   2      411      409      412
     784   2      409      412      413
     785   2      409      412      414
     786   3      409      412      415
     787   1      413      412      414
     788   2      413      412      415
     789   2      414      412      415
     790   2      412      415      416
     791   2      412      415      417
     792   3      412      415      418
     793   1      416      415      417
     794   2      416      415      418
     795   2      417      415      418
     796   2      415      418      419
     797   2      415      418      420
     798   1      419      418      420
     799   1      422      421      423
     800   2      422      421      424
     801   2      423      421      424
     802   2      421      424      425
     803   2      421      424      426
     804   3      421      424      427
     805   1      425      424      426
     806   2      425      424      427
     807   2      426      424      427
     808   2      424      427      428
     809   2      424      427      429
     810   3      424      427      430
     811   1      428      427      429
     812   2      428      427      430
     813   2      429      427      430
     814   2      427      430      431
     815   2      427      430      432
     816   3      427      430      433
     817   1      431      430      432
     818   2      431      430      433
     819   2      432      430      433
     820   2      430      433      434
     821   2      430      433      435
     822   3      430      433      436
     823   1      434      433      435
     824   2      434      433      436
     825   2      435      433      436
     826   2      433      436      437
     827   2      433      436      438
     828   3      433      436      439
     829   1      437      436      438
     830   2      437      436      439
     831   2      438      436      439
     832   2      436      439      440
     833   2      436      439      441
     834   3      436      439      442
     835   1      440      439      441
     836   2      440      439      442
     837   2      441      439      442
     838   2      439      442      443
     839   2      439      442      444
     840   3      439      442      445
     841   1      443      442      444
     842   2      443      442      445
     843   2      444      442      445
     844   2      442      445      446
     845   2      442      445      447
     846   3      442      445      448
     847   1      446      445      447
     848   2      446      445      448
     849   2      447      445      448
     850   2      445      448      449
     851   2      445      448      450
     852   3      445      448      451
     853   1      449      448      450
     854   2      449      448      451
     855   2      450      448      451
     856   2      448      451      452
     857   2      448      451      453
     858   3      448      451      454
     859   1      452      451      453
     860   2      452      451      454
     861   2      453      451      454
     862   2      451      454      455
     863   2      451      454      456
     864   3      451      454      457
     865   1      455      454      456
     866   2      455      454      457
     867   2      456      454      457
     868   2      454      457      458
     869   2      454      457      459
     870   3      454      457      460
     871   1      458      457      459
     872   2      458      457      460
     873   2      459      457      460
     874   2      457      460      461
     875   2      457      460      462
     876   3      457      460      463
     877   1      461      460      462
     878   2      461      460      463
     879   2      462      460      463
     880   2      460      463      464
     881   2      460      463      465
     882   3      460      463      466
     883   1      464      463      465
     884   2      464      463      466
     885   2      465      463      466
     886   2      463      466      467
     887   2      463      466      468
     888   3      463      466      469
     889   1      467      466      468
     890   2      467      466      469
     891   2      468      466      469
     892   2      466      469      470
     893   2      466      469      471
     894   3      466      469      472
     895   1      470      469      471
     896   2      470      469      472
     897   2      471      469      472
     898   2      469      472      473
     899   2      469      472      474
     900   3      469      472      475
     901   1      473      472      474
     902   2      473      472      475
     903   2      474      472      475
     904   2      472      475      476
     905   2      472      475      477
     906   3      472      475      478
     907   1      476      475      477
     908   2      476      475      478
     909   2      477      475      478
     910   2      475      478      479
     911   2      475      478      480
     912   1      479      478      480
     913   1      482      481      483
     914   2      482      481      484
     915   2      483      481      484
     916   2      481      484      485
     917   2      481      484      486
     918   3      481      484      487
     919   1      485      484      486
     920   2      485      484      487
     921   2      486      484      487
     922   2      484      487      488
     923   2      484      487      489
     924   3      484      487      490
     925   1      488      487      489
     926   2      488      487      490
     927   2      489      487      490
     928   2      487      490      491
     929   2      487      490      492
     930   3      487      490      493
     931   1      491      490      492
     932   2      491      490      493
     933   2      492      490      493
     934   2      490      493      494
     935   2      490      493      495
     936   3      490      493      496
     937   1      494      493      495
     938   2      494      493      496
     939   2      495      493      496
     940   2      493      496      497
     941   2      493      496      498
     942   3      493      496      499
     943   1      497      496      498
     944   2      497      496      499
     945   2      498      496      499
     946   2      496      499      500
     947   2      496      499      501
     948   3      496      499      502
     949   1      500      499      501
     950   2      500      499      502
     951   2      501      499      502
     952   2      499      502      503
     953   2      499      502      504
     954   3      499      502      505
     955   1      503      502      504
     956   2      503      502      505
     957   2      504      502      505
     958   2      502      505      506
     959   2      502      505      507
     960   3      502      505      508
     961   1      506      505      507
     962   2      506      505      508
     963   2      507      505      508
     964   2      505      508      509
     965   2      505      508      510
     966   3      505      508      511
     967   1      509      508      510
     968   2      509      508      511
     969   2      510      508      511
     970   2      508      511      512
     971   2      508      511      513
     972   3      508      511      514
     973   1      512      511      513
     974   2      512      511      514
     975   2      513      511      514
     976   2      511      514      515
     977   2      511      514      516
     978   3      511      514      517
     979   1      515      514      516
     980   2      515      514      517
     981   2      516      514      517
     982   2      514      517      518
     983   2      514      517      519
     984   3      514      517      520
     985   1      518      517      519
     986   2      518      517      520
     987   2      519      517      520
     988   2      517      520      521
     989   2      517      520      522
     990   3      517      520      523
     991   1      521      520      522
     992   2      521      520      523
     993   2      522      520      523
     994   2      520      523      524
     995   2      520      523      525
     996   3      520      523      526
     997   1      524      523      525
     998   2      524      523      526
     999   2      525      523      526
     1000   2      523      526      527
     1001   2      523      526      528
     1002   3      523      526      529
     1003   1      527      526      528
     1004   2      527      526      529
     1005   2      528      526      529
     1006   2      526      529      530
     1007   2      526      529      531
     1008   3      526      529      532
     1009   1      530      529      531
     1010   2      530      529      532
     1011   2      531      529      532
     1012   2      529      532      533
     1013   2      529      532      534
     1014   3      529      532      535
     1015   1      533      532      534
     1016   2      533      532      535
     1017   2      534      532      535
     1018   2      532      535      536
     1019   2      532      535      537
     1020   3      532      535      538
     1021   1      536      535      537
     1022   2      536      535      538
     1023   2      537      535      538
     1024   2      535      538      539
     1025   2      535      538      540
     1026   1      539      538      540
     1027   1      542      541      543
     1028   2      542      541      544
     1029   2      543      541      544
     1030   2      541      544      545
     1031   2      541      544      546
     1032   3      541      544      547
     1033   1      545      544      546
     1034   2      545      544      547
     1035   2      546      544      547
     1036   2      544      547      548
     1037   2      544      547      549
     1038   3      544      547      550
     1039   1      548      547      549
     1040   2      548      547      550
     1041   2      549      547      550
     1042   2      547      550      551
     1043   2      547      550      552
     1044   3      547      550      553
     1045   1      551      550      552
     1046   2      551      550      553
     1047   2      552      550      553
     1048   2      550      553      554
     1049   2      550      553      555
     1050   3      550      553      556
     1051   1      554      553      555
     1052   2      554      553      556
     1053   2      555      553      556
     1054   2      553      556      557
     1055   2      553      556      558
     1056   3      553      556      559
     1057   1      557      556      558
     1058   2      557      556      559
     1059   2      558      556      559
     1060   2      556      559      560
     1061   2      556      559      561
     1062   3      556      559      562
     1063   1      560      559      561
     1064   2      560      559      562
     1065   2      561      559      562
     1066   2      559      562      563
     1067   2      559      562      564
     1068   3      559      562      565
     1069   1      563      562      564
     1070   2      563      562      565
     1071   2      564      562      565
     1072   2      562      565      566
     1073   2      562      565      567
     1074   3      562      565      568
     1075   1      566      565      567
     1076   2      566      565      568
     1077   2      567      565      568
     1078   2      565      568      569
     1079   2      565      568      570
     1080   3      565      568      571
     1081   1      569      568      570
     1082   2      569      568      571
     1083   2      570      568      571
     1084   2      568      571      572
     1085   2      568      571      573
     1086   3      568      571      574
     1087   1      572      571      573
     1088   2      572      571      574
     1089   2      573      571      574
     1090   2      571      574      575
     1091   2      571      574      576
     1092   3      571      574      577
     1093   1      575      574      576
     1094   2      575      574      577
     1095   2      576      574      577
     1096   2      574      577      578
     1097   2      574      577      579
     1098   3      574      577      580
     1099   1      578      577      579
     1100   2      578      577      580
     1101   2      579      577      580
     1102   2      577      580      581
     1103   2      577      580      582
     1104   3      577      580      583
     1105   1      581      580      582
     1106   2      581      580      583
     1107   2      582      580      583
     1108   2      580      583      584
     1109   2      580      583      585
     1110   3      580      583      586
     1111   1      584      583      585
     1112   2      584      583      586
     1113   2      585      583      586
     1114   2      583      586      587
     1115   2      583      586      588
     1116   3      583      586      589
     1117   1      587      586      588
     1118   2      587      586      589
     1119   2      588      586      589
     1120   2      586      589      590
     1121   2      586      589      591
     1122   3      586      589      592
     1123   1      590      589      591
     1124   2      590      589      592
     1125   2      591      589      592
     1126   2      589      592      593
     1127   2      589      592      594
     1128   3      589      592      595
     1129   1      593      592      594
     1130   2      593      592      595
     1131   2      594      592      595
     1132   2      592      595      596
     1133   2      592      595      597
     1134   3      592      595      598
     1135   1      596      595      597
     1136   2      596      595      598
     1137   2      597      595      598
     1138   2      595      598      599
     1139   2      595      598      600
     1140   1      599      598      600
     1141   1      602      601      603
     1142   2      602      601      604
     1143   2      603      601      604
     1144   2      601      604      605
     1145   2      601      604      606
     1146   3      601      604      607
     1147   1      605      604      606
     1148   2      605      604      607
     1149   2      606      604      607
     1150   2      604      607      608
     1151   2      604      607      609
     1152   3      604      607      610
     1153   1      608      607      609
     1154   2      608      607      610
     1155   2      609      607      610
     1156   2      607      610      611
     1157   2      607      610      612
     1158   3      607      610      613
     1159   1      611      610      612
     1160   2      611      610      613
     1161   2      612      610      613
     1162   2      610      613      614
     1163   2      610      613      615
     1164   3      610      613      616
     1165   1      614      613      615
     1166   2      614      613      616
     1167   2      615      613      616
     1168   2      613      616      617
     1169   2      613      616      618
     1170   3      613      616      619
     1171   1      617      616      618
     1172   2      617      616      619
     1173   2      618      616      619
     1174   2      616      619      620
     1175   2      616      619      621
     1176   3      616      619      622
     1177   1      620      619      621
     1178   2      620      619      622
     1179   2      621      619      622
     1180   2      619      622      623
     1181   2      619      622      624
     1182   3      619      622      625
     1183   1      623      622      624
     1184   2      623      622      625
     1185   2      624      622      625
     1186   2      622      625      626
     1187   2      622      625      627
     1188   3      622      625      628
     1189   1      626      625      627
     1190   2      626      625      628
     1191   2      627      625      628
     1192   2      625      628      629
     1193   2      625      628      630
     1194   3      625      628      631
     1195   1      629      628      630
     1196   2      629      628      631
     1197   2      630      628      631
     1198   2      628      631      632
     1199   2      628      631      633
     1200   3      628      631      634
     1201   1      632      631      633
     1202   2      632      631      634
     1203   2      633      631      634
     1204   2      631      634      635
     1205   2      631      634      636
     1206   3      631      634      637
     1207   1      635      634      636
     1208   2      635      634      637
     1209   2      636      634      637
     1210   2      634      637      638
     1211   2      634      637      639
     1212   3      634      637      640
     1213   1      638      637      639
     1214   2      638      637      640
     1215   2      639      637      640
     1216   2      637      640      641
     1217   2      637      640      642
     1218   3      637      640      643
     1219   1      641      640      642
     1220   2      641      640      643
     1221   2      642      640      643
     1222   2      640      643      644
     1223   2      640      643      645
     1224   3      640      643      646
     1225   1      644      643      645
     1226   2      644      643      646
     1227   2      645      643      646
     1228   2      643      646      647
     1229   2      643      646      648
     1230   3      643      646      649
     1231   1      647      646      648
     1232   2      647      646      649
     1233   2      648      646      649
     1234   2      646      649      650
     1235   2      646      649      651
     1236   3      646      649      652
     1237   1      650      649      651
     1238   2      650      649      652
     1239   2      651      649      652
     1240   2      649      652      653
     1241   2      649      652      654
     1242   3      649      652      655
     1243   1      653      652      654
     1244   2      653      652      655
     1245   2      654      652      655
     1246   2      652      655      656
     1247   2      652      655      657
     1248   3      652      655      658
     1249   1      656      655      657
     1250   2      656      655      658
     1251   2      657      655      658
     1252   2      655      658      659
     1253   2      655      658      660
     1254   1      659      658      660
     1255   1      662      661      663
     1256   2      662      661      664
     1257   2      663      661      664
     1258   2      661      664      665
     1259   2      661      664      666
     1260   3      661      664      667
     1261   1      665      664      666
     1262   2      665      664      667
     1263   2      666      664      667
     1264   2      664      667      668
     1265   2      664      667      669
     1266   3      664      667      670
     1267   1      668      667      669
     1268   2      668      667      670
     1269   2      669      667      670
     1270   2      667      670      671
     1271   2      667      670      672
     1272   3      667      670      673
     1273   1      671      670      672
     1274   2      671      670      673
     1275   2      672      670      673
     1276   2      670      673      674
     1277   2      670      673      675
     1278   3      670      673      676
     1279   1      674      673      675
     1280   2      674      673      676
     1281   2      675      673      676
     1282   2      673      676      677
     1283   2      673      676      678
     1284   3      673      676      679
     1285   1      677      676      678
     1286   2      677      676      679
     1287   2      678      676      679
     1288   2      676      679      680
     1289   2      676      679      681
     1290   3      676      679      682
     1291   1      680      679      681
     1292   2      680      679      682
     1293   2      681      679      682
     1294   2      679      682      683
     1295   2      679      682      684
     1296   3      679      682      685
     1297   1      683      682      684
     1298   2      683      682      685
     1299   2      684      682      685
     1300   2      682      685      686
     1301   2      682      685      687
     1302   3      682      685      688
     1303   1      686      685      687
     1304   2      686      685      688
     1305   2      687      685      688
     1306   2      685      688      689
     1307   2      685      688      690
     1308   3      685      688      691
     1309   1      689      688      690
     1310   2      689      688      691
     1311   2      690      688      691
     1312   2      688      691      692
     1313   2      688      691      693
     1314   3      688      691      694
     1315   1      692      691      693
     1316   2      692      691      694
     1317   2      693      691      694
     1318   2      691      694      695
     1319   2      691      694      696
     1320   3      691      694      697
     1321   1      695      694      696
     1322   2      695      694      697
     1323   2      696      694      697
     1324   2      694      697      698
     1325   2      694      697      699
     1326   3      694      697      700
     1327   1      698      697      699
     1328   2      698      697      700
     1329   2      699      697      700
     1330   2      697      700      701
     1331   2      697      700      702
     1332   3      697      700      703
     1333   1      701      700      702
     1334   2      701      700      703
     1335   2      702      700      703
     1336   2      700      703      704
     1337   2      700      703      705
     1338   3      700      703      706
     1339   1      704      703      705
     1340   2      704      703      706
     1341   2      705      703      706
     1342   2      703      706      707
     1343   2      703      706      708
     1344   3      703      706      709
     1345   1      707      706      708
     1346   2      707      706      709
     1347   2      708      706      709
     1348   2      706      709      710
     1349   2      706      709      711
     1350   3      706      709      712
     1351   1      710      709      711
     1352   2      710      709      712
     1353   2      711      709      712
     1354   2      709      712      713
     1355   2      709      712      714
     1356   3      709      712      715
     1357   1      713      712      714
     1358   2      713      712      715
     1359   2      714      712      715
     1360   2      712      715      716
     1361   2      712      715      717
     1362   3      712      715      718
     1363   1      716      715      717
     1364   2      716      715      718
     1365   2      717      715      718
     1366   2      715      718      719
     1367   2      715      718      720
     1368   1      719      718      720
     1369   1      722      721      723
     1370   2      722      721      724
     1371   2      723      721      724
     1372   2      721      724      725
     1373   2      721      724      726
     1374   3      721      724      727
     1375   1      725      724      726
     1376   2      725      724      727
     1377   2      726      724      727
     1378   2      724      727      728
     1379   2      724      727      729
     1380   3      724      727      730
     1381   1      728      727      729
     1382   2      728      727      730
     1383   2      729      727      730
     1384   2      727      730      731
     1385   2      727      730      732
     1386   3      727      730      733
     1387   1      731      730      732
     1388   2      731      730      733
     1389   2      732      730      733
     1390   2      730      733      734
     1391   2      730      733      735
     1392   3      730      733      736
     1393   1      734      733      735
     1394   2      734      733      736
     1395   2      735      733      736
     1396   2      733      736      737
     1397   2      733      736      738
     1398   3      733      736      739
     1399   1      737      736      738
     1400   2      737      736      739
     1401   2      738      736      739
     1402   2      736      739      740
     1403   2      736      739      741
     1404   3      736      739      742
     1405   1      740      739      741
     1406   2      740      739      742
     1407   2      741      739      742
     1408   2      739      742      743
     1409   2      739      742      744
     1410   3      739      742      745
     1411   1      743      742      744
     1412   2      743      742      745
     1413   2      744      742      745
     1414   2      742      745      746
     1415   2      742      745      747
     1416   3      742      745      748
     1417   1      746      745      747
     1418   2      746      745      748
     1419   2      747      745      748
     1420   2      745      748      749
     1421   2      745      748      750
     1422   3      745      748      751
     1423   1      749      748      750
     1424   2      749      748      751
     1425   2      750      748      751
     1426   2      748      751      752
     1427   2      748      751      753
     1428   3      748      751      754
     1429   1      752      751      753
     1430   2      752      751      754
     1431   2      753      751      754
     1432   2      751      754      755
     1433   2      751      754      756
     1434   3      751      754      757
     1435   1      755      754      756
     1436   2      755      754      757
     1437   2      756      754      757
     1438   2      754      757      758
     1439   2      754      757      759
     1440   3      754      757      760
     1441   1      758      757      759
     1442   2      758      757      760
     1443   2      759      757      760
     1444   2      757      760      761
     1445   2      757      760      762
     1446   3      757      760      763
     1447   1      761      760      762
     1448   2      761      760      763
     1449   2      762      760      763
     1450   2      760      763      764
     1451   2      760      763      765
     1452   3      760      763      766
     1453   1      764      763      765
     1454   2      764      763      766
     1455   2      765      763      766
     1456   2      763      766      767
     1457   2      763      766      768
     1458   3      763      766      769
     1459   1      767      766      768
     1460   2      767      766      769
     1461   2      768      766      769
     1462   2      766      769      770
     1463   2      766      769      771
     1464   3      766      769      772
     1465   1      770      769      771
     1466   2      770      769      772
     1467   2      771      769      772
     1468   2      769      772      773
     1469   2      769      772      774
     1470   3      769      772      775
     1471   1      773      772      774
     1472   2      773      772      775
     1473   2      774      772      775
     1474   2      772      775      776
     1475   2      772      775      777
     1476   3      772      775      778
     1477   1      776      775      777
     1478   2      776      775      778
     1479   2      777      775      778
     1480   2      775      778      779
     1481   2      775      778      780
     1482   1      779      778      780
     1483   1      782      781      783
     1484   2      782      781      784
     1485   2      783      781      784
     1486   2      781      784      785
     1487   2      781      784      786
     1488   3      781      784      787
     1489   1      785      784      786
     1490   2      785      784      787
     1491   2      786      784      787
     1492   2      784      787      788
     1493   2      784      787      789
     1494   3      784      787      790
     1495   1      788      787      789
     1496   2      788      787      790
     1497   2      789      787      790
     1498   2      787      790      791
     1499   2      787      790      792
     1500   3      787      790      793
     1501   1      791      790      792
     1502   2      791      790      793
     1503   2      792      790      793
     1504   2      790      793      794
     1505   2      790      793      795
     1506   3      790      793      796
     1507   1      794      793      795
     1508   2      794      793      796
     1509   2      795      793      796
     1510   2      793      796      797
     1511   2      793      796      798
     1512   3      793      796      799
     1513   1      797      796      798
     1514   2      797      796      799
     1515   2      798      796      799
     1516   2      796      799      800
     1517   2      796      799      801
     1518   3      796      799      802
     1519   1      800      799      801
     1520   2      800      799      802
     1521   2      801      799      802
     1522   2      799      802      803
     1523   2      799      802      804
     1524   3      799      802      805
     1525   1      803      802      804
     1526   2      803      802      805
     1527   2      804      802      805
     1528   2      802      805      806
     1529   2      802      805      807
     1530   3      802      805      808
     1531   1      806      805      807
     1532   2      806      805      808
     1533   2      807      805      808
     1534   2      805      808      809
     1535   2      805      808      810
     1536   3      805      808      811
     1537   1      809      808      810
     1538   2      809      808      811
     1539   2      810      808      811
     1540   2      808      811      812
     1541   2      808      811      813
     1542   3      808      811      814
     1543   1      812      811      813
     1544   2      812      811      814
     1545   2      813      811      814
     1546   2      811      814      815
     1547   2      811      814      816
     1548   3      811      814      817
     1549   1      815      814      816
     1550   2      815      814      817
     1551   2      816      814      817
     1552   2      814      817      818
     1553   2      814      817      819
     1554   3      814      817      820
     1555   1      818      817      819
     1556   2      818      817      820
     1557   2      819      817      820
     1558   2      817      820      821
     1559   2      817      820      822
     1560   3      817      820      823
     1561   1      821      820      822
     1562   2      821      820      823
     1563   2      822      820      823
     1564   2      820      823      824
     1565   2      820      823      825
     1566   3      820      823      826
     1567   1      824      823      825
     1568   2      824      823      826
     1569   2      825      823      826
     1570   2      823      826      827
     1571   2      823      826      828
     1572   3      823      826      829
     1573   1      827      826      828
     1574   2      827      826      829
     1575   2      828      826      829
     1576   2      826      829      830
     1577   2      826      829      831
     1578   3      826      829      832
     1579   1      830      829      831
     1580   2      830      829      832
     1581   2      831      829      832
     1582   2      829      832      833
     1583   2      829      832      834
     1584   3      829      832      835
     1585   1      833      832      834
     1586   2      833      832      835
     1587   2      834      832      835
     1588   2      832      835      836
     1589   2      832      835      837
     1590   3      832      835      838
     1591   1      836      835      837
     1592   2      836      835      838
     1593   2      837      835      838
     1594   2      835      838      839
     1595   2      835      838      840
     1596   1      839      838      840
     1597   1      842      841      843
     1598   2      842      841      844
     1599   2      843      841      844
     1600   2      841      844      845
     1601   2      841      844      846
     1602   3      841      844      847
     1603   1      845      844      846
     1604   2      845      844      847
     1605   2      846      844      847
     1606   2      844      847      848
     1607   2      844      847      849
     1608   3      844      847      850
     1609   1      848      847      849
     1610   2      848      847      850
     1611   2      849      847      850
     1612   2      847      850      851
     1613   2      847      850      852
     1614   3      847      850      853
     1615   1      851      850      852
     1616   2      851      850      853
     1617   2      852      850      853
     1618   2      850      853      854
     1619   2      850      853      855
     1620   3      850      853      856
     1621   1      854      853      855
     1622   2      854      853      856
     1623   2      855      853      856
     1624   2      853      856      857
     1625   2      853      856      858
     1626   3      853      856      859
     1627   1      857      856      858
     1628   2      857      856      859
     1629   2      858      856      859
     1630   2      856      859      860
     1631   2      856      859      861
     1632   3      856      859      862
     1633   1      860      859      861
     1634   2      860      859      862
     1635   2      861      859      862
     1636   2      859      862      863
     1637   2      859      862      864
     1638   3      859      862      865
     1639   1      863      862      864
     1640   2      863      862      865
     1641   2      864      862      865
     1642   2      862      865      866
     1643   2      862      865      867
     1644   3      862      865      868
     1645   1      866      865      867
     1646   2      866      865      868
     1647   2      867      865      868
     1648   2      865      868      869
     1649   2      865      868      870
     1650   3      865      868      871
     1651   1      869      868      870
     1652   2      869      868      871
     1653   2      870      868      871
     1654   2      868      871      872
     1655   2      868      871      873
     1656   3      868      871      874
     1657   1      872      871      873
     1658   2      872      871      874
     1659   2      873      871      874
     1660   2      871      874      875
     1661   2      871      874      876
     1662   3      871      874      877
     1663   1      875      874      876
     1664   2      875      874      877
     1665   2      876      874      877
     1666   2      874      877      878
     1667   2      874      877      879
     1668   3      874      877      880
     1669   1      878      877      879
     1670   2      878      877      880
     1671   2      879      877      880
     1672   2      877      880      881
     1673   2      877      880      882
     1674   3      877      880      883
     1675   1      881      880      882
     1676   2      881      880      883
     1677   2      882      880      883
     1678   2      880      883      884
     1679   2      880      883      885
     1680   3      880      883      886
     1681   1      884      883      885
     1682   2      884      883      886
     1683   2      885      883      886
     1684   2      883      886      887
     1685   2      883      886      888
     1686   3      883      886      889
     1687   1      887      886      888
     1688   2      887      886      889
     1689   2      888      886      889
     1690   2      886      889      890
     1691   2      886      889      891
     1692   3      886      889      892
     1693   1      890      889      891
     1694   2      890      889      892
     1695   2      891      889      892
     1696   2      889      892      893
     1697   2      889      892      894
     1698   3      889      892      895
     1699   1      893      892      894
     1700   2      893      892      895
     1701   2      894      892      895
     1702   2      892      895      896
     1703   2      892      895      897
     1704   3      892      895      898
     1705   1      896      895      897
     1706   2      896      895      898
     1707   2      897      895      898
     1708   2      895      898      899
     1709   2      895      898      900
     1710   1      899      898      900
     1711   1      902      901      903
     1712   2      902      901      904
     1713   2      903      901      904
     1714   2      901      904      905
     1715   2      901      904      906
     1716   3      901      904      907
     1717   1      905      904      906
     1718   2      905      904      907
     1719   2      906      904      907
     1720   2      904      907      908
     1721   2      904      907      909
     1722   3      904      907      910
     1723   1      908      907      909
     1724   2      908      907      910
     1725   2      909      907      910
     1726   2      907      910      911
     1727   2      907      910      912
     1728   3      907      910      913
     1729   1      911      910      912
     1730   2      911      910      913
     1731   2      912      910      913
     1732   2      910      913      914
     1733   2      910      913      915
     1734   3      910      913      916
     1735   1      914      913      915
     1736   2      914      913      916
     1737   2      915      913      916
     1738   2      913      916      917
     1739   2      913      916      918
     1740   3      913      916      919
     1741   1      917      916      918
     1742   2      917      916      919
     1743   2      918      916      919
     1744   2      916      919      920
     1745   2      916      919      921
     1746   3      916      919      922
     1747   1      920      919      921
     1748   2      920      919      922
     1749   2      921      919      922
     1750   2      919      922      923
     1751   2      919      922      924
     1752   3      919      922      925
     1753   1      923      922      924
     1754   2      923      922      925
     1755   2      924      922      925
     1756   2      922      925      926
     1757   2      922      925      927
     1758   3      922      925      928
     1759   1      926      925      927
     1760   2      926      925      928
     1761   2      927      925      928
     1762   2      925      928      929
     1763   2      925      928      930
     1764   3      925      928      931
     1765   1      929      928      930
     1766   2      929      928      931
     1767   2      930      928      931
     1768   2      928      931      932
     1769   2      928      931      933
     1770   3      928      931      934
     1771   1      932      931      933
     1772   2      932      931      934
     1773   2      933      931      934
     1774   2      931      934      935
     1775   2      931      934      936
     1776   3      931      934      937
     1777   1      935      934      936
     1778   2      935      934      937
     1779   2      936      934      937
     1780   2      934      937      938
     1781   2      934      937      939
     1782   3      934      937      940
     1783   1      938      937      939
     1784   2      938      937      940
     1785   2      939      937      940
     1786   2      937      940      941
     1787   2      937      940      942
     1788   3      937      940      943
     1789   1      941      940      942
     1790   2      941      940      943
     1791   2      942      940      943
     1792   2      940      943      944
     1793   2      940      943      945
     1794   3      940      943      946
     1795   1      944      943      945
     1796   2      944      943      946
     1797   2      945      943      946
     1798   2      943      946      947
     1799   2      943      946      948
     1800   3      943      946      949
     1801   1      947      946      948
     1802   2      947      946      949
     1803   2      948      946      949
     1804   2      946      949      950
     1805   2      946      949      951
     1806   3      946      949      952
     1807   1      950      949      951
     1808   2      950      949      952
     1809   2      951      949      952
     1810   2      949      952      953
     1811   2      949      952      954
     1812   3      949      952      955
     1813   1      953      952      954
     1814   2      953      952      955
     1815   2      954      952      955
     1816   2      952      955      956
     1817   2      952      955      957
     1818   3      952      955      958
     1819   1      956      955      957
     1820   2      956      955      958
     1821   2      957      955      958
     1822   2      955      958      959
     1823   2      955      958      960
     1824   1      959      958      960
     1825   1      962      961      963
     1826   2      962      961      964
     1827   2      963      961      964
     1828   2      961      964      965
     1829   2      961      964      966
     1830   3      961      964      967
     1831   1      965      964      966
     1832   2      965      964      967
     1833   2      966      964      967
     1834   2      964      967      968
     1835   2      964      967      969
     1836   3      964      967      970
     1837   1      968      967      969
     1838   2      968      967      970
     1839   2      969      967      970
     1840   2      967      970      971
     1841   2      967      970      972
     1842   3      967      970      973
     1843   1      971      970      972
     1844   2      971      970      973
     1845   2      972      970      973
     1846   2      970      973      974
     1847   2      970      973      975
     1848   3      970      973      976
     1849   1      974      973      975
     1850   2      974      973      976
     1851   2      975      973      976
     1852   2      973      976      977
     1853   2      973      976      978
     1854   3      973      976      979
     1855   1      977      976      978
     1856   2      977      976      979
     1857   2      978      976      979
     1858   2      976      979      980
     1859   2      976      979      981
     1860   3      976      979      982
     1861   1      980      979      981
     1862   2      980      979      982
     1863   2      981      979      982
     1864   2      979      982      983
     1865   2      979      982      984
     1866   3      979      982      985
     1867   1      983      982      984
     1868   2      983      982      985
     1869   2      984      982      985
     1870   2      982      985      986
     1871   2      982      985      987
     1872   3      982      985      988
     1873   1      986      985      987
     1874   2      986      985      988
     1875   2      987      985      988
     1876   2      985      988      989
     1877   2      985      988      990
     1878   3      985      988      991
     1879   1      989      988      990
     1880   2      989      988      991
     1881   2      990      988      991
     1882   2      988      991      992
     1883   2      988      991      993
     1884   3      988      991      994
     1885   1      992      991      993
     1886   2      992      991      994
     1887   2      993      991      994
     1888   2      991      994      995
     1889   2      991      994      996
     1890   3      991      994      997
     1891   1      995      994      996
     1892   2      995      994      997
     1893   2      996      994      997
     1894   2      994      997      998
     1895   2      994      997      999
     1896   3      994      997      1000
     1897   1      998      997      999
     1898   2      998      997      1000
     1899   2      999      997      1000
     1900   2      997      1000      1001
     1901   2      997      1000      1002
     1902   3      997      1000      1003
     1903   1      1001      1000      1002
     1904   2      1001      1000      1003
     1905   2      1002      1000      1003
     1906   2      1000      1003      1004
     1907   2      1000      1003      1005
     1908   3      1000      1003      1006
     1909   1      1004      1003      1005
     1910   2      1004      1003      1006
     1911   2      1005      1003      1006
     1912   2      1003      1006      1007
     1913   2      1003      1006      1008
     1914   3      1003      1006      1009
     1915   1      1007      1006      1008
     1916   2      1007      1006      1009
     1917   2      1008      1006      1009
     1918   2      1006      1009      1010
     1919   2      1006      1009      1011
     1920   3      1006      1009      1012
     1921   1      1010      1009      1011
     1922   2      1010      1009      1012
     1923   2      1011      1009      1012
     1924   2      1009      1012      1013
     1925   2      1009      1012      1014
     1926   3      1009      1012      1015
     1927   1      1013      1012      1014
     1928   2      1013      1012      1015
     1929   2      1014      1012      1015
     1930   2      1012      1015      1016
     1931   2      1012      1015      1017
     1932   3      1012      1015      1018
     1933   1      1016      1015      1017
     1934   2      1016      1015      1018
     1935   2      1017      1015      1018
     1936   2      1015      1018      1019
     1937   2      1015      1018      1020
     1938   1      1019      1018      1020
     1939   1      1022      1021      1023
     1940   2      1022      1021      1024
     1941   2      1023      1021      1024
     1942   2      1021      1024      1025
     1943   2      1021      1024      1026
     1944   3      1021      1024      1027
     1945   1      1025      1024      1026
     1946   2      1025      1024      1027
     1947   2      1026      1024      1027
     1948   2      1024      1027      1028
     1949   2      1024      1027      1029
     1950   3      1024      1027      1030
     1951   1      1028      1027      1029
     1952   2      1028      1027      1030
     1953   2      1029      1027      1030
     1954   2      1027      1030      1031
     1955   2      1027      1030      1032
     1956   3      1027      1030      1033
     1957   1      1031      1030      1032
     1958   2      1031      1030      1033
     1959   2      1032      1030      1033
     1960   2      1030      1033      1034
     1961   2      1030      1033      1035
     1962   3      1030      1033      1036
     1963   1      1034      1033      1035
     1964   2      1034      1033      1036
     1965   2      1035      1033      1036
     1966   2      1033      1036      1037
     1967   2      1033      1036      1038
     1968   3      1033      1036      1039
     1969   1      1037      1036      1038
     1970   2      1037      1036      1039
     1971   2      1038      1036      1039
     1972   2      1036      1039      1040
     1973   2      1036      1039      1041
     1974   3      1036      1039      1042
     1975   1      1040      1039      1041
     1976   2      1040      1039      1042
     1977   2      1041      1039      1042
     1978   2      1039      1042      1043
     1979   2      1039      1042      1044
     1980   3      1039      1042      1045
     1981   1      1043      1042      1044
     1982   2      1043      1042      1045
     1983   2      1044      1042      1045
     1984   2      1042      1045      1046
     1985   2      1042      1045      1047
     1986   3      1042      1045      1048
     1987   1      1046      1045      1047
     1988   2      1046      1045      1048
     1989   2      1047      1045      1048
     1990   2      1045      1048      1049
     1991   2      1045      1048      1050
     1992   3      1045      1048      1051
     1993   1      1049      1048      1050
     1994   2      1049      1048      1051
     1995   2      1050      1048      1051
     1996   2      1048      1051      1052
     1997   2      1048      1051      1053
     1998   3      1048      1051      1054
     1999   1      1052      1051      1053
     2000   2      1052      1051      1054
     2001   2      1053      1051      1054
     2002   2      1051      1054      1055
     2003   2      1051      1054      1056
     2004   3      1051      1054      1057
     2005   1      1055      1054      1056
     2006   2      1055      1054      1057
     2007   2      1056      1054      1057
     2008   2      1054      1057      1058
     2009   2      1054      1057      1059
     2010   3      1054      1057      1060
     2011   1      1058      1057      1059
     2012   2      1058      1057      1060
     2013   2      1059      1057      1060
     2014   2      1057      1060      1061
     2015   2      1057      1060      1062
     2016   3      1057      1060      1063
     2017   1      1061      1060      1062
     2018   2      1061      1060      1063
     2019   2      1062      1060      1063
     2020   2      1060      1063      1064
     2021   2      1060      1063      1065
     2022   3      1060      1063      1066
     2023   1      1064      1063      1065
     2024   2      1064      1063      1066
     2025   2      1065      1063      1066
     2026   2      1063      1066      1067
     2027   2      1063      1066      1068
     2028   3      1063      1066      1069
     2029   1      1067      1066      1068
     2030   2      1067      1066      1069
     2031   2      1068      1066      1069
     2032   2      1066      1069      1070
     2033   2      1066      1069      1071
     2034   3      1066      1069      1072
     2035   1      1070      1069      1071
     2036   2      1070      1069      1072
     2037   2      1071      1069      1072
     2038   2      1069      1072      1073
     2039   2      1069      1072      1074
     2040   3      1069      1072      1075
     2041   1      1073      1072      1074
     2042   2      1073      1072      1075
     2043   2      1074      1072      1075
     2044   2      1072      1075      1076
     2045   2      1072      1075      1077
     2046   3      1072      1075      1078
     2047   1      1076      1075      1077
     2048   2      1076      1075      1078
     2049   2      1077      1075      1078
     2050   2      1075      1078      1079
     2051   2      1075      1078      1080
     2052   1      1079      1078      1080
     2053   1      1082      1081      1083
     2054   2      1082      1081      1084
     2055   2      1083      1081      1084
     2056   2      1081      1084      1085
     2057   2      1081      1084      1086
     2058   3      1081      1084      1087
     2059   1      1085      1084      1086
     2060   2      1085      1084      1087
     2061   2      1086      1084      1087
     2062   2      1084      1087      1088
     2063   2      1084      1087      1089
     2064   3      1084      1087      1090
     2065   1      1088      1087      1089
     2066   2      1088      1087      1090
     2067   2      1089      1087      1090
     2068   2      1087      1090      1091
     2069   2      1087      1090      1092
     2070   3      1087      1090      1093
     2071   1      1091      1090      1092
     2072   2      1091      1090      1093
     2073   2      1092      1090      1093
     2074   2      1090      1093      1094
     2075   2      1090      1093      1095
     2076   3      1090      1093      1096
     2077   1      1094      1093      1095
     2078   2      1094      1093      1096
     2079   2      1095      1093      1096
     2080   2      1093      1096      1097
     2081   2      1093      1096      1098
     2082   3      1093      1096      1099
     2083   1      1097      1096      1098
     2084   2      1097      1096      1099
     2085   2      1098      1096      1099
     2086   2      1096      1099      1100
     2087   2      1096      1099      1101
     2088   3      1096      1099      1102
     2089   1      1100      1099      1101
     2090   2      1100      1099      1102
     2091   2      1101      1099      1102
     2092   2      1099      1102      1103
     2093   2      1099      1102      1104
     2094   3      1099      1102      1105
     2095   1      1103      1102      1104
     2096   2      1103      1102      1105
     2097   2      1104      1102      1105
     2098   2      1102      1105      1106
     2099   2      1102      1105      1107
     2100   3      1102      1105      1108
     2101   1      1106      1105      1107
     2102   2      1106      1105      1108
     2103   2      1107      1105      1108
     2104   2      1105      1108      1109
     2105   2      1105      1108      1110
     2106   3      1105      1108      1111
     2107   1      1109      1108      1110
     2108   2      1109      1108      1111
     2109   2      1110      1108      1111
     2110   2      1108      1111      1112
     2111   2      1108      1111      1113
     2112   3      1108      1111      1114
     2113   1      1112      1111      1113
     2114   2      1112      1111      1114
     2115   2      1113      1111      1114
     2116   2      1111      1114      1115
     2117   2      1111      1114      1116
     2118   3      1111      1114      1117
     2119   1      1115      1114      1116
     2120   2      1115      1114      1117
     2121   2      1116      1114      1117
     2122   2      1114      1117      1118
     2123   2      1114      1117      1119
     2124   3      1114      1117      1120
     2125   1      1118      1117      1119
     2126   2      1118      1117      1120
     2127   2      1119      1117      1120
     2128   2      1117      1120      1121
     2129   2      1117      1120      1122
     2130   3      1117      1120      1123
     2131   1      1121      1120      1122
     2132   2      1121      1120      1123
     2133   2      1122      1120      1123
     2134   2      1120      1123      1124
     2135   2      1120      1123      1125
     2136   3      1120      1123      1126
     2137   1      1124      1123      1125
     2138   2      1124      1123      1126
     2139   2      1125      1123      1126
     2140   2      1123      1126      1127
     2141   2      1123      1126      1128
     2142   3      1123      1126      1129
     2143   1      1127      1126      1128
     2144   2      1127      1126      1129
     2145   2      1128      1126      1129
     2146   2      1126      1129      1130
     2147   2      1126      1129      1131
     2148   3      1126      1129      1132
     2149   1      1130      1129      1131
     2150   2      1130      1129      1132
     2151   2      1131      1129      1132
     2152   2      1129      1132      1133
     2153   2      1129      1132      1134
     2154   3      1129      1132      1135
     2155   1      1133      1132      1134
     2156   2      1133      1132      1135
     2157   2      1134      1132      1135
     2158   2      1132      1135      1136
     2159   2      1132      1135      1137
     2160   3      1132      1135      1138
     2161   1      1136      1135      1137
     2162   2      1136      1135      1138
     2163   2      1137      1135      1138
     2164   2      1135      1138      1139
     2165   2      1135      1138      1140
     2166   1      1139      1138      1140
     2167   1      1142      1141      1143
     2168   2      1142      1141      1144
     2169   2      1143      1141      1144
     2170   2      1141      1144      1145
     2171   2      1141      1144      1146
     2172   3      1141      1144      1147
     2173   1      1145      1144      1146
     2174   2      1145      1144      1147
     2175   2      1146      1144      1147
     2176   2      1144      1147      1148
     2177   2      1144      1147      1149
     2178   3      1144      1147      1150
     2179   1      1148      1147      1149
     2180   2      1148      1147      1150
     2181   2      1149      1147      1150
     2182   2      1147      1150      1151
     2183   2      1147      1150      1152
     2184   3      1147      1150      1153
     2185   1      1151      1150      1152
     2186   2      1151      1150      1153
     2187   2      1152      1150      1153
     2188   2      1150      1153      1154
     2189   2      1150      1153      1155
     2190   3      1150      1153      1156
     2191   1      1154      1153      1155
     2192   2      1154      1153      1156
     2193   2      1155      1153      1156
     2194   2      1153      1156      1157
     2195   2      1153      1156      1158
     2196   3      1153      1156      1159
     2197   1      1157      1156      1158
     2198   2      1157      1156      1159
     2199   2      1158      1156      1159
     2200   2      1156      1159      1160
     2201   2      1156      1159      1161
     2202   3      1156      1159      1162
     2203   1      1160      1159      1161
     2204   2      1160      1159      1162
     2205   2      1161      1159      1162
     2206   2      1159      1162      1163
     2207   2      1159      1162      1164
     2208   3      1159      1162      1165
     2209   1      1163      1162      1164
     2210   2      1163      1162      1165
     2211   2      1164      1162      1165
     2212   2      1162      1165      1166
     2213   2      1162      1165      1167
     2214   3      1162      1165      1168
     2215   1      1166      1165      1167
     2216   2      1166      1165      1168
     2217   2      1167      1165      1168
     2218   2      1165      1168      1169
     2219   2      1165      1168      1170
     2220   3      1165      1168      1171
     2221   1      1169      1168      1170
     2222   2      1169      1168      1171
     2223   2      1170      1168      1171
     2224   2      1168      1171      1172
     2225   2      1168      1171      1173
     2226   3      1168      1171      1174
     2227   1      1172      1171      1173
     2228   2      1172      1171      1174
     2229   2      1173      1171      1174
     2230   2      1171      1174      1175
     2231   2      1171      1174      1176
     2232   3      1171      1174      1177
     2233   1      1175      1174      1176
     2234   2      1175      1174      1177
     2235   2      1176      1174      1177
     2236   2      1174      1177      1178
     2237   2      1174      1177      1179
     2238   3      1174      1177      1180
     2239   1      1178      1177      1179
     2240   2      1178      1177      1180
     2241   2      1179      1177      1180
     2242   2      1177      1180      1181
     2243   2      1177      1180      1182
     2244   3      1177      1180      1183
     2245   1      1181      1180      1182
     2246   2      1181      1180      1183
     2247   2      1182      1180      1183
     2248   2      1180      1183      1184
     2249   2      1180      1183      1185
     2250   3      1180      1183      1186
     2251   1      1184      1183      1185
     2252   2      1184      1183      1186
     2253   2      1185      1183      1186
     2254   2      1183      1186      1187
     2255   2      1183      1186      1188
     2256   3      1183      1186      1189
     2257   1      1187      1186      1188
     2258   2      1187      1186      1189
     2259   2      1188      1186      1189
     2260   2      1186      1189      1190
     2261   2      1186      1189      1191
     2262   3      1186      1189      1192
     2263   1      1190      1189      1191
     2264   2      1190      1189      1192
     2265   2      1191      1189      1192
     2266   2      1189      1192      1193
     2267   2      1189      1192      1194
     2268   3      1189      1192      1195
     2269   1      1193      1192      1194
     2270   2      1193      1192      1195
     2271   2      1194      1192      1195
     2272   2      1192      1195      1196
     2273   2      1192      1195      1197
     2274   3      1192      1195      1198
     2275   1      1196      1195      1197
     2276   2      1196      1195      1198
     2277   2      1197      1195      1198
     2278   2      1195      1198      1199
     2279   2      1195      1198      1200
     2280   1      1199      1198      1200

Dihedrals

     1   1      2      1      4      5
     2   1      2      1      4      6
     3   2      2      1      4      7
     4   1      3      1      4      5
     5   1      3      1      4      6
     6   2      3      1      4      7
     7   2      1      4      7      8
     8   2      1      4      7      9
     9   3      1      4      7      10
     10   1      5      4      7      8
     11   1      5      4      7      9
     12   2      5      4      7      10
     13   1      6      4      7      8
     14   1      6      4      7      9
     15   2      6      4      7      10
     16   1      8      7      10      11
     17   1      8      7      10      12
     18   2      8      7      10      13
     19   1      9      7      10      11
     20   1      9      7      10      12
     21   2      9      7      10      13
     22   2      4      7      10      11
     23   2      4      7      10      12
     24   3      4      7      10      13
     25   2      11      10      13      16
     26   1      11      10      13      14
     27   1      11      10      13      15
     28   2      12      10      13      16
     29   1      12      10      13      14
     30   1      12      10      13      15
     31   3      7      10      13      16
     32   2      7      10      13      14
     33   2      7      10      13      15
     34   2      10      13      16      17
     35   2      10      13      16      18
     36   3      10      13      16      19
     37   1      14      13      16      17
     38   1      14      13      16      18
     39   2      14      13      16      19
     40   1      15      13      16      17
     41   1      15      13      16      18
     42   2      15      13      16      19
     43   1      17      16      19      20
     44   1      17      16      19      21
     45   2      17      16      19      22
     46   1      18      16      19      20
     47   1      18      16      19      21
     48   2      18      16      19      22
     49   2      13      16      19      20
     50   2      13      16      19      21
     51   3      13      16      19      22
     52   2      16      19      22      24
     53   3      16      19      22      25
     54   2      16      19      22      23
     55   1      20      19      22      24
     56   2      20      19      22      25
     57   1      20      19      22      23
     58   1      21      19      22      24
     59   2      21      19      22      25
     60   1      21      19      22      23
     61   1      24      22      25      26
     62   1      24      22      25      27
     63   2      24      22      25      28
     64   2      19      22      25      26
     65   2      19      22      25      27
     66   3      19      22      25      28
     67   1      23      22      25      26
     68   1      23      22      25      27
     69   2      23      22      25      28
     70   1      26      25      28      29
     71   1      26      25      28      30
     72   2      26      25      28      31
     73   1      27      25      28      29
     74   1      27      25      28      30
     75   2      27      25      28      31
     76   2      22      25      28      29
     77   2      22      25      28      30
     78   3      22      25      28      31
     79   2      25      28      31      32
     80   2      25      28      31      33
     81   3      25      28      31      34
     82   1      29      28      31      32
     83   1      29      28      31      33
     84   2      29      28      31      34
     85   1      30      28      31      32
     86   1      30      28      31      33
     87   2      30      28      31      34
     88   1      32      31      34      35
     89   1      32      31      34      36
     90   2      32      31      34      37
     91   1      33      31      34      35
     92   1      33      31      34      36
     93   2      33      31      34      37
     94   2      28      31      34      35
     95   2      28      31      34      36
     96   3      28      31      34      37
     97   2      35      34      37      40
     98   1      35      34      37      38
     99   1      35      34      37      39
     100   2      36      34      37      40
     101   1      36      34      37      38
     102   1      36      34      37      39
     103   3      31      34      37      40
     104   2      31      34      37      38
     105   2      31      34      37      39
     106   2      34      37      40      41
     107   2      34      37      40      42
     108   3      34      37      40      43
     109   1      38      37      40      41
     110   1      38      37      40      42
     111   2      38      37      40      43
     112   1      39      37      40      41
     113   1      39      37      40      42
     114   2      39      37      40      43
     115   1      41      40      43      44
     116   1      41      40      43      45
     117   2      41      40      43      46
     118   1      42      40      43      44
     119   1      42      40      43      45
     120   2      42      40      43      46
     121   2      37      40      43      44
     122   2      37      40      43      45
     123   3      37      40      43      46
     124   2      40      43      46      48
     125   3      40      43      46      49
     126   2      40      43      46      47
     127   1      44      43      46      48
     128   2      44      43      46      49
     129   1      44      43      46      47
     130   1      45      43      46      48
     131   2      45      43      46      49
     132   1      45      43      46      47
     133   1      48      46      49      50
     134   1      48      46      49      51
     135   2      48      46      49      52
     136   2      43      46      49      50
     137   2      43      46      49      51
     138   3      43      46      49      52
     139   1      47      46      49      50
     140   1      47      46      49      51
     141   2      47      46      49      52
     142   1      50      49      52      53
     143   1      50      49      52      54
     144   2      50      49      52      55
     145   1      51      49      52      53
     146   1      51      49      52      54
     147   2      51      49      52      55
     148   2      46      49      52      53
     149   2      46      49      52      54
     150   3      46      49      52      55
     151   2      49      52      55      56
     152   2      49      52      55      57
     153   3      49      52      55      58
     154   1      53      52      55      56
     155   1      53      52      55      57
     156   2      53      52      55      58
     157   1      54      52      55      56
     158   1      54      52      55      57
     159   2      54      52      55      58
     160   1      56      55      58      59
     161   1      56      55      58      60
     162   1      57      55      58      59
     163   1      57      55      58      60
     164   2      52      55      58      59
     165   2      52      55      58      60
     166   1      62      61      64      65
     167   1      62      61      64      66
     168   2      62      61      64      67
     169   1      63      61      64      65
     170   1      63      61      64      66
     171   2      63      61      64      67
     172   1      65      64      67      68
     173   1      65      64      67      69
     174   2      65      64      67      70
     175   1      66      64      67      68
     176   1      66      64      67      69
     177   2      66      64      67      70
     178   2      61      64      67      68
     179   2      61      64      67      69
     180   3      61      64      67      70
     181   2      64      67      70      72
     182   3      64      67      70      73
     183   2      64      67      70      71
     184   1      68      67      70      72
     185   2      68      67      70      73
     186   1      68      67      70      71
     187   1      69      67      70      72
     188   2      69      67      70      73
     189   1      69      67      70      71
     190   1      72      70      73      74
     191   1      72      70      73      75
     192   2      72      70      73      76
     193   2      67      70      73      74
     194   2      67      70      73      75
     195   3      67      70      73      76
     196   1      71      70      73      74
     197   1      71      70      73      75
     198   2      71      70      73      76
     199   1      74      73      76      77
     200   1      74      73      76      78
     201   2      74      73      76      79
     202   1      75      73      76      77
     203   1      75      73      76      78
     204   2      75      73      76      79
     205   2      70      73      76      77
     206   2      70      73      76      78
     207   3      70      73      76      79
     208   2      73      76      79      80
     209   2      73      76      79      81
     210   3      73      76      79      82
     211   1      77      76      79      80
     212   1      77      76      79      81
     213   2      77      76      79      82
     214   1      78      76      79      80
     215   1      78      76      79      81
     216   2      78      76      79      82
     217   1      80      79      82      83
     218   1      80      79      82      84
     219   2      80      79      82      85
     220   1      81      79      82      83
     221   1      81      79      82      84
     222   2      81      79      82      85
     223   2      76      79      82      83
     224   2      76      79      82      84
     225   3      76      79      82      85
     226   2      83      82      85      88
     227   1      83      82      85      86
     228   1      83      82      85      87
     229   2      84      82      85      88
     230   1      84      82      85      86
     231   1      84      82      85      87
     232   3      79      82      85      88
     233   2      79      82      85      86
     234   2      79      82      85      87
     235   2      82      85      88      89
     236   2      82      85      88      90
     237   3      82      85      88      91
     238   1      86      85      88      89
     239   1      86      85      88      90
     240   2      86      85      88      91
     241   1      87      85      88      89
     242   1      87      85      88      90
     243   2      87      85      88      91
     244   1      89      88      91      92
     245   1      89      88      91      93
     246   2      89      88      91      94
     247   1      90      88      91      92
     248   1      90      88      91      93
     249   2      90      88      91      94
     250   2      85      88      91      92
     251   2      85      88      91      93
     252   3      85      88      91      94
     253   2      88      91      94      96
     254   3      88      91      94      97
     255   2      88      91      94      95
     256   1      92      91      94      96
     257   2      92      91      94      97
     258   1      92      91      94      95
     259   1      93      91      94      96
     260   2      93      91      94      97
     261   1      93      91      94      95
     262   1      96      94      97      98
     263   1      96      94      97      99
     264   2      96      94      97      100
     265   2      91      94      97      98
     266   2      91      94      97      99
     267   3      91      94      97      100
     268   1      95      94      97      98
     269   1      95      94      97      99
     270   2      95      94      97      100
     271   1      98      97      100      101
     272   1      98      97      100      102
     273   2      98      97      100      103
     274   1      99      97      100      101
     275   1      99      97      100      102
     276   2      99      97      100      103
     277   2      94      97      100      101
     278   2      94      97      100      102
     279   3      94      97      100      103
     280   2      97      100      103      104
     281   2      97      100      103      105
     282   3      97      100      103      106
     283   1      101      100      103      104
     284   1      101      100      103      105
     285   2      101      100      103      106
     286   1      102      100      103      104
     287   1      102      100      103      105
     288   2      102      100      103      106
     289   1      104      103      106      107
     290   1      104      103      106      108
     291   2      104      103      106      109
     292   1      105      103      106      107
     293   1      105      103      106      108
     294   2      105      103      106      109
     295   2      100      103      106      107
     296   2      100      103      106      108
     297   3      100      103      106      109
     298   2      107      106      109      112
     299   1      107      106      109      110
     300   1      107      106      109      111
     301   2      108      106      109      112
     302   1      108      106      109      110
     303   1      108      106      109      111
     304   3      103      106      109      112
     305   2      103      106      109      110
     306   2      103      106      109      111
     307   2      106      109      112      113
     308   2      106      109      112      114
     309   3      106      109      112      115
     310   1      110      109      112      113
     311   1      110      109      112      114
     312   2      110      109      112      115
     313   1      111      109      112      113
     314   1      111      109      112      114
     315   2      111      109      112      115
     316   1      113      112      115      116
     317   1      113      112      115      117
     318   2      113      112      115      118
     319   1      114      112      115      116
     320   1      114      112      115      117
     321   2      114      112      115      118
     322   2      109      112      115      116
     323   2      109      112      115      117
     324   3      109      112      115      118
     325   2      112      115      118      120
     326   2      112      115      118      119
     327   1      116      115      118      120
     328   1      116      115      118      119
     329   1      117      115      118      120
     330   1      117      115      118      119
     331   1      122      121      124      125
     332   1      122      121      124      126
     333   2      122      121      124      127
     334   1      123      121      124      125
     335   1      123      121      124      126
     336   2      123      121      124      127
     337   2      121      124      127      128
     338   2      121      124      127      129
     339   3      121      124      127      130
     340   1      125      124      127      128
     341   1      125      124      127      129
     342   2      125      124      127      130
     343   1      126      124      127      128
     344   1      126      124      127      129
     345   2      126      124      127      130
     346   1      128      127      130      131
     347   1      128      127      130      132
     348   2      128      127      130      133
     349   1      129      127      130      131
     350   1      129      127      130      132
     351   2      129      127      130      133
     352   2      124      127      130      131
     353   2      124      127      130      132
     354   3      124      127      130      133
     355   2      131      130      133      136
     356   1      131      130      133      134
     357   1      131      130      133      135
     358   2      132      130      133      136
     359   1      132      130      133      134
     360   1      132      130      133      135
     361   3      127      130      133      136
     362   2      127      130      133      134
     363   2      127      130      133      135
     364   2      130      133      136      137
     365   2      130      133      136      138
     366   3      130      133      136      139
     367   1      134      133      136      137
     368   1      134      133      136      138
     369   2      134      133      136      139
     370   1      135      133      136      137
     371   1      135      133      136      138
     372   2      135      133      136      139
     373   1      137      136      139      140
     374   1      137      136      139      141
     375   2      137      136      139      142
     376   1      138      136      139      140
     377   1      138      136      139      141
     378   2      138      136      139      142
     379   2      133      136      139      140
     380   2      133      136      139      141
     381   3      133      136      139      142
     382   2      136      139      142      144
     383   3      136      139      142      145
     384   2      136      139      142      143
     385   1      140      139      142      144
     386   2      140      139      142      145
     387   1      140      139      142      143
     388   1      141      139      142      144
     389   2      141      139      142      145
     390   1      141      139      142      143
     391   1      144      142      145      146
     392   1      144      142      145      147
     393   2      144      142      145      148
     394   2      139      142      145      146
     395   2      139      142      145      147
     396   3      139      142      145      148
     397   1      143      142      145      146
     398   1      143      142      145      147
     399   2      143      142      145      148
     400   1      146      145      148      149
     401   1      146      145      148      150
     402   2      146      145      148      151
     403   1      147      145      148      149
     404   1      147      145      148      150
     405   2      147      145      148      151
     406   2      142      145      148      149
     407   2      142      145      148      150
     408   3      142      145      148      151
     409   2      145      148      151      152
     410   2      145      148      151      153
     411   3      145      148      151      154
     412   1      149      148      151      152
     413   1      149      148      151      153
     414   2      149      148      151      154
     415   1      150      148      151      152
     416   1      150      148      151      153
     417   2      150      148      151      154
     418   1      152      151      154      155
     419   1      152      151      154      156
     420   2      152      151      154      157
     421   1      153      151      154      155
     422   1      153      151      154      156
     423   2      153      151      154      157
     424   2      148      151      154      155
     425   2      148      151      154      156
     426   3      148      151      154      157
     427   2      155      154      157      160
     428   1      155      154      157      158
     429   1      155      154      157      159
     430   2      156      154      157      160
     431   1      156      154      157      158
     432   1      156      154      157      159
     433   3      151      154      157      160
     434   2      151      154      157      158
     435   2      151      154      157      159
     436   2      154      157      160      161
     437   2      154      157      160      162
     438   3      154      157      160      163
     439   1      158      157      160      161
     440   1      158      157      160      162
     441   2      158      157      160      163
     442   1      159      157      160      161
     443   1      159      157      160      162
     444   2      159      157      160      163
     445   1      161      160      163      164
     446   1      161      160      163      165
     447   2      161      160      163      166
     448   1      162      160      163      164
     449   1      162      160      163      165
     450   2      162      160      163      166
     451   2      157      160      163      164
     452   2      157      160      163      165
     453   3      157      160      163      166
     454   2      160      163      166      168
     455   3      160      163      166      169
     456   2      160      163      166      167
     457   1      164      163      166      168
     458   2      164      163      166      169
     459   1      164      163      166      167
     460   1      165      163      166      168
     461   2      165      163      166      169
     462   1      165      163      166      167
     463   1      168      166      169      170
     464   1      168      166      169      171
     465   2      168      166      169      172
     466   2      163      166      169      170
     467   2      163      166      169      171
     468   3      163      166      169      172
     469   1      167      166      169      170
     470   1      167      166      169      171
     471   2      167      166      169      172
     472   1      170      169      172      173
     473   1      170      169      172      174
     474   2      170      169      172      175
     475   1      171      169      172      173
     476   1      171      169      172      174
     477   2      171      169      172      175
     478   2      166      169      172      173
     479   2      166      169      172      174
     480   3      166      169      172      175
     481   2      169      172      175      176
     482   2      169      172      175      177
     483   3      169      172      175      178
     484   1      173      172      175      176
     485   1      173      172      175      177
     486   2      173      172      175      178
     487   1      174      172      175      176
     488   1      174      172      175      177
     489   2      174      172      175      178
     490   1      176      175      178      179
     491   1      176      175      178      180
     492   1      177      175      178      179
     493   1      177      175      178      180
     494   2      172      175      178      179
     495   2      172      175      178      180
     496   1      182      181      184      185
     497   1      182      181      184      186
     498   2      182      181      184      187
     499   1      183      181      184      185
     500   1      183      181      184      186
     501   2      183      181      184      187
     502   1      185      184      187      188
     503   1      185      184      187      189
     504   2      185      184      187      190
     505   1      186      184      187      188
     506   1      186      184      187      189
     507   2      186      184      187      190
     508   2      181      184      187      188
     509   2      181      184      187      189
     510   3      181      184      187      190
     511   2      184      187      190      192
     512   3      184      187      190      193
     513   2      184      187      190      191
     514   1      188      187      190      192
     515   2      188      187      190      193
     516   1      188      187      190      191
     517   1      189      187      190      192
     518   2      189      187      190      193
     519   1      189      187      190      191
     520   1      192      190      193      194
     521   1      192      190      193      195
     522   2      192      190      193      196
     523   2      187      190      193      194
     524   2      187      190      193      195
     525   3      187      190      193      196
     526   1      191      190      193      194
     527   1      191      190      193      195
     528   2      191      190      193      196
     529   1      194      193      196      197
     530   1      194      193      196      198
     531   2      194      193      196      199
     532   1      195      193      196      197
     533   1      195      193      196      198
     534   2      195      193      196      199
     535   2      190      193      196      197
     536   2      190      193      196      198
     537   3      190      193      196      199
     538   2      193      196      199      200
     539   2      193      196      199      201
     540   3      193      196      199      202
     541   1      197      196      199      200
     542   1      197      196      199      201
     543   2      197      196      199      202
     544   1      198      196      199      200
     545   1      198      196      199      201
     546   2      198      196      199      202
     547   1      200      199      202      203
     548   1      200      199      202      204
     549   2      200      199      202      205
     550   1      201      199      202      203
     551   1      201      199      202      204
     552   2      201      199      202      205
     553   2      196      199      202      203
     554   2      196      199      202      204
     555   3      196      199      202      205
     556   2      203      202      205      208
     557   1      203      202      205      206
     558   1      203      202      205      207
     559   2      204      202      205      208
     560   1      204      202      205      206
     561   1      204      202      205      207
     562   3      199      202      205      208
     563   2      199      202      205      206
     564   2      199      202      205      207
     565   2      202      205      208      209
     566   2      202      205      208      210
     567   3      202      205      208      211
     568   1      206      205      208      209
     569   1      206      205      208      210
     570   2      206      205      208      211
     571   1      207      205      208      209
     572   1      207      205      208      210
     573   2      207      205      208      211
     574   1      209      208      211      212
     575   1      209      208      211      213
     576   2      209      208      211      214
     577   1      210      208      211      212
     578   1      210      208      211      213
     579   2      210      208      211      214
     580   2      205      208      211      212
     581   2      205      208      211      213
     582   3      205      208      211      214
     583   2      208      211      214      216
     584   3      208      211      214      217
     585   2      208      211      214      215
     586   1      212      211      214      216
     587   2      212      211      214      217
     588   1      212      211      214      215
     589   1      213      211      214      216
     590   2      213      211      214      217
     591   1      213      211      214      215
     592   1      216      214      217      218
     593   1      216      214      217      219
     594   2      216      214      217      220
     595   2      211      214      217      218
     596   2      211      214      217      219
     597   3      211      214      217      220
     598   1      215      214      217      218
     599   1      215      214      217      219
     600   2      215      214      217      220
     601   1      218      217      220      221
     602   1      218      217      220      222
     603   2      218      217      220      223
     604   1      219      217      220      221
     605   1      219      217      220      222
     606   2      219      217      220      223
     607   2      214      217      220      221
     608   2      214      217      220      222
     609   3      214      217      220      223
     610   2      217      220      223      224
     611   2      217      220      223      225
     612   3      217      220      223      226
     613   1      221      220      223      224
     614   1      221      220      223      225
     615   2      221      220      223      226
     616   1      222      220      223      224
     617   1      222      220      223      225
     618   2      222      220      223      226
     619   1      224      223      226      227
     620   1      224      223      226      228
     621   2      224      223      226      229
     622   1      225      223      226      227
     623   1      225      223      226      228
     624   2      225      223      226      229
     625   2      220      223      226      227
     626   2      220      223      226      228
     627   3      220      223      226      229
     628   2      227      226      229      232
     629   1      227      226      229      230
     630   1      227      226      229      231
     631   2      228      226      229      232
     632   1      228      226      229      230
     633   1      228      226      229      231
     634   3      223      226      229      232
     635   2      223      226      229      230
     636   2      223      226      229      231
     637   2      226      229      232      233
     638   2      226      229      232      234
     639   3      226      229      232      235
     640   1      230      229      232      233
     641   1      230      229      232      234
     642   2      230      229      232      235
     643   1      231      229      232      233
     644   1      231      229      232      234
     645   2      231      229      232      235
     646   1      233      232      235      236
     647   1      233      232      235      237
     648   2      233      232      235      238
     649   1      234      232      235      236
     650   1      234      232      235      237
     651   2      234      232      235      238
     652   2      229      232      235      236
     653   2      229      232      235      237
     654   3      229      232      235      238
     655   2      232      235      238      240
     656   2      232      235      238      239
     657   1      236      235      238      240
     658   1      236      235      238      239
     659   1      237      235      238      240
     660   1      237      235      238      239
     661   1      242      241      244      245
     662   1      242      241      244      246
     663   2      242      241      244      247
     664   1      243      241      244      245
     665   1      243      241      244      246
     666   2      243      241      244      247
     667   2      241      244      247      248
     668   2      241      244      247      249
     669   3      241      244      247      250
     670   1      245      244      247      248
     671   1      245      244      247      249
     672   2      245      244      247      250
     673   1      246      244      247      248
     674   1      246      244      247      249
     675   2      246      244      247      250
     676   1      248      247      250      251
     677   1      248      247      250      252
     678   2      248      247      250      253
     679   1      249      247      250      251
     680   1      249      247      250      252
     681   2      249      247      250      253
     682   2      244      247      250      251
     683   2      244      247      250      252
     684   3      244      247      250      253
     685   2      251      250      253      256
     686   1      251      250      253      254
     687   1      251      250      253      255
     688   2      252      250      253      256
     689   1      252      250      253      254
     690   1      252      250      253      255
     691   3      247      250      253      256
     692   2      247      250      253      254
     693   2      247      250      253      255
     694   2      250      253      256      257
     695   2      250      253      256      258
     696   3      250      253      256      259
     697   1      254      253      256      257
     698   1      254      253      256      258
     699   2      254      253      256      259
     700   1      255      253      256      257
     701   1      255      253      256      258
     702   2      255      253      256      259
     703   1      257      256      259      260
     704   1      257      256      259      261
     705   2      257      256      259      262
     706   1      258      256      259      260
     707   1      258      256      259      261
     708   2      258      256      259      262
     709   2      253      256      259      260
     710   2      253      256      259      261
     711   3      253      256      259      262
     712   2      256      259      262      264
     713   3      256      259      262      265
     714   2      256      259      262      263
     715   1      260      259      262      264
     716   2      260      259      262      265
     717   1      260      259      262      263
     718   1      261      259      262      264
     719   2      261      259      262      265
     720   1      261      259      262      263
     721   1      264      262      265      266
     722   1      264      262      265      267
     723   2      264      262      265      268
     724   2      259      262      265      266
     725   2      259      262      265      267
     726   3      259      262      265      268
     727   1      263      262      265      266
     728   1      263      262      265      267
     729   2      263      262      265      268
     730   1      266      265      268      269
     731   1      266      265      268      270
     732   2      266      265      268      271
     733   1      267      265      268      269
     734   1      267      265      268      270
     735   2      267      265      268      271
     736   2      262      265      268      269
     737   2      262      265      268      270
     738   3      262      265      268      271
     739   2      265      268      271      272
     740   2      265      268      271      273
     741   3      265      268      271      274
     742   1      269      268      271      272
     743   1      269      268      271      273
     744   2      269      268      271      274
     745   1      270      268      271      272
     746   1      270      268      271      273
     747   2      270      268      271      274
     748   1      272      271      274      275
     749   1      272      271      274      276
     750   2      272      271      274      277
     751   1      273      271      274      275
     752   1      273      271      274      276
     753   2      273      271      274      277
     754   2      268      271      274      275
     755   2      268      271      274      276
     756   3      268      271      274      277
     757   2      275      274      277      280
     758   1      275      274      277      278
     759   1      275      274      277      279
     760   2      276      274      277      280
     761   1      276      274      277      278
     762   1      276      274      277      279
     763   3      271      274      277      280
     764   2      271      274      277      278
     765   2      271      274      277      279
     766   2      274      277      280      281
     767   2      274      277      280      282
     768   3      274      277      280      283
     769   1      278      277      280      281
     770   1      278      277      280      282
     771   2      278      277      280      283
     772   1      279      277      280      281
     773   1      279      277      280      282
     774   2      279      277      280      283
     775   1      281      280      283      284
     776   1      281      280      283      285
     777   2      281      280      283      286
     778   1      282      280      283      284
     779   1      282      280      283      285
     780   2      282      280      283      286
     781   2      277      280      283      284
     782   2      277      280      283      285
     783   3      277      280      283      286
     784   2      280      283      286      288
     785   3      280      283      286      289
     786   2      280      283      286      287
     787   1      284      283      286      288
     788   2      284      283      286      289
     789   1      284      283      286      287
     790   1      285      283      286      288
     791   2      285      283      286      289
     792   1      285      283      286      287
     793   1      288      286      289      290
     794   1      288      286      289      291
     795   2      288      286      289      292
     796   2      283      286      289      290
     797   2      283      286      289      291
     798   3      283      286      289      292
     799   1      287      286      289      290
     800   1      287      286      289      291
     801   2      287      286      289      292
     802   1      290      289      292      293
     803   1      290      289      292      294
     804   2      290      289      292      295
     805   1      291      289      292      293
     806   1      291      289      292      294
     807   2      291      289      292      295
     808   2      286      289      292      293
     809   2      286      289      292      294
     810   3      286      289      292      295
     811   2      289      292      295      296
     812   2      289      292      295      297
     813   3      289      292      295      298
     814   1      293      292      295      296
     815   1      293      292      295      297
     816   2      293      292      295      298
     817   1      294      292      295      296
     818   1      294      292      295      297
     819   2      294      292      295      298
     820   1      296      295      298      299
     821   1      296      295      298      300
     822   1      297      295      298      299
     823   1      297      295      298      300
     824   2      292      295      298      299
     825   2      292      295      298      300
     826   1      302      301      304      305
     827   1      302      301      304      306
     828   2      302      301      304      307
     829   1      303      301      304      305
     830   1      303      301      304      306
     831   2      303      301      304      307
     832   1      305      304      307      308
     833   1      305      304      307      309
     834   2      305      304      307      310
     835   1      306      304      307      308
     836   1      306      304      307      309
     837   2      306      304      307      310
     838   2      301      304      307      308
     839   2      301      304      307      309
     840   3      301      304      307      310
     841   2      304      307      310      312
     842   3      304      307      310      313
     843   2      304      307      310      311
     844   1      308      307      310      312
     845   2      308      307      310      313
     846   1      308      307      310      311
     847   1      309      307      310      312
     848   2      309      307      310      313
     849   1      309      307      310      311
     850   1      312      310      313      314
     851   1      312      310      313      315
     852   2      312      310      313      316
     853   2      307      310      313      314
     854   2      307      310      313      315
     855   3      307      310      313      316
     856   1      311      310      313      314
     857   1      311      310      313      315
     858   2      311      310      313      316
     859   1      314      313      316      317
     860   1      314      313      316      318
     861   2      314      313      316      319
     862   1      315      313      316      317
     863   1      315      313      316      318
     864   2      315      313      316      319
     865   2      310      313      316      317
     866   2      310      313      316      318
     867   3      310      313      316      319
     868   2      313      316      319      320
     869   2      313      316      319      321
     870   3      313      316      319      322
     871   1      317      316      319      320
     872   1      317      316      319      321
     873   2      317      316      319      322
     874   1      318      316      319      320
     875   1      318      316      319      321
     876   2      318      316      319      322
     877   1      320      319      322      323
     878   1      320      319      322      324
     879   2      320      319      322      325
     880   1      321      319      322      323
     881   1      321      319      322      324
     882   2      321      319      322      325
     883   2      316      319      322      323
     884   2      316      319      322      324
     885   3      316      319      322      325
     886   2      323      322      325      328
     887   1      323      322      325      326
     888   1      323      322      325      327
     889   2      324      322      325      328
     890   1      324      322      325      326
     891   1      324      322      325      327
     892   3      319      322      325      328
     893   2      319      322      325      326
     894   2      319      322      325      327
     895   2      322      325      328      329
     896   2      322      325      328      330
     897   3      322      325      328      331
     898   1      326      325      328      329
     899   1      326      325      328      330
     900   2      326      325      328      331
     901   1      327      325      328      329
     902   1      327      325      328      330
     903   2      327      325      328      331
     904   1      329      328      331      332
     905   1      329      328      331      333
     906   2      329      328      331      334
     907   1      330      328      331      332
     908   1      330      328      331      333
     909   2      330      328      331      334
     910   2      325      328      331      332
     911   2      325      328      331      333
     912   3      325      328      331      334
     913   2      328      331      334      336
     914   3      328      331      334      337
     915   2      328      331      334      335
     916   1      332      331      334      336
     917   2      332      331      334      337
     918   1      332      331      334      335
     919   1      333      331      334      336
     920   2      333      331      334      337
     921   1      333      331      334      335
     922   1      336      334      337      338
     923   1      336      334      337      339
     924   2      336      334      337      340
     925   2      331      334      337      338
     926   2      331      334      337      339
     927   3      331      334      337      340
     928   1      335      334      337      338
     929   1      335      334      337      339
     930   2      335      334      337      340
     931   1      338      337      340      341
     932   1      338      337      340      342
     933   2      338      337      340      343
     934   1      339      337      340      341
     935   1      339      337      340      342
     936   2      339      337      340      343
     937   2      334      337      340      341
     938   2      334      337      340      342
     939   3      334      337      340      343
     940   2      337      340      343      344
     941   2      337      340      343      345
     942   3      337      340      343      346
     943   1      341      340      343      344
     944   1      341      340      343      345
     945   2      341      340      343      346
     946   1      342      340      343      344
     947   1      342      340      343      345
     948   2      342      340      343      346
     949   1      344      343      346      347
     950   1      344      343      346      348
     951   2      344      343      346      349
     952   1      345      343      346      347
     953   1      345      343      346      348
     954   2      345      343      346      349
     955   2      340      343      346      347
     956   2      340      343      346      348
     957   3      340      343      346      349
     958   2      347      346      349      352
     959   1      347      346      349      350
     960   1      347      346      349      351
     961   2      348      346      349      352
     962   1      348      346      349      350
     963   1      348      346      349      351
     964   3      343      346      349      352
     965   2      343      346      349      350
     966   2      343      346      349      351
     967   2      346      349      352      353
     968   2      346      349      352      354
     969   3      346      349      352      355
     970   1      350      349      352      353
     971   1      350      349      352      354
     972   2      350      349      352      355
     973   1      351      349      352      353
     974   1      351      349      352      354
     975   2      351      349      352      355
     976   1      353      352      355      356
     977   1      353      352      355      357
     978   2      353      352      355      358
     979   1      354      352      355      356
     980   1      354      352      355      357
     981   2      354      352      355      358
     982   2      349      352      355      356
     983   2      349      352      355      357
     984   3      349      352      355      358
     985   2      352      355      358      360
     986   2      352      355      358      359
     987   1      356      355      358      360
     988   1      356      355      358      359
     989   1      357      355      358      360
     990   1      357      355      358      359
     991   1      362      361      364      365
     992   1      362      361      364      366
     993   2      362      361      364      367
     994   1      363      361      364      365
     995   1      363      361      364      366
     996   2      363      361      364      367
     997   2      361      364      367      368
     998   2      361      364      367      369
     999   3      361      364      367      370
     1000   1      365      364      367      368
     1001   1      365      364      367      369
     1002   2      365      364      367      370
     1003   1      366      364      367      368
     1004   1      366      364      367      369
     1005   2      366      364      367      370
     1006   1      368      367      370      371
     1007   1      368      367      370      372
     1008   2      368      367      370      373
     1009   1      369      367      370      371
     1010   1      369      367      370      372
     1011   2      369      367      370      373
     1012   2      364      367      370      371
     1013   2      364      367      370      372
     1014   3      364      367      370      373
     1015   2      371      370      373      376
     1016   1      371      370      373      374
     1017   1      371      370      373      375
     1018   2      372      370      373      376
     1019   1      372      370      373      374
     1020   1      372      370      373      375
     1021   3      367      370      373      376
     1022   2      367      370      373      374
     1023   2      367      370      373      375
     1024   2      370      373      376      377
     1025   2      370      373      376      378
     1026   3      370      373      376      379
     1027   1      374      373      376      377
     1028   1      374      373      376      378
     1029   2      374      373      376      379
     1030   1      375      373      376      377
     1031   1      375      373      376      378
     1032   2      375      373      376      379
     1033   1      377      376      379      380
     1034   1      377      376      379      381
     1035   2      377      376      379      382
     1036   1      378      376      379      380
     1037   1      378      376      379      381
     1038   2      378      376      379      382
     1039   2      373      376      379      380
     1040   2      373      376      379      381
     1041   3      373      376      379      382
     1042   2      376      379      382      384
     1043   3      376      379      382      385
     1044   2      376      379      382      383
     1045   1      380      379      382      384
     1046   2      380      379      382      385
     1047   1      380      379      382      383
     1048   1      381      379      382      384
     1049   2      381      379      382      385
     1050   1      381      379      382      383
     1051   1      384      382      385      386
     1052   1      384      382      385      387
     1053   2      384      382      385      388
     1054   2      379      382      385      386
     1055   2      379      382      385      387
     1056   3      379      382      385      388
     1057   1      383      382      385      386
     1058   1      383      382      385      387
     1059   2      383      382      385      388
     1060   1      386      385      388      389
     1061   1      386      385      388      390
     1062   2      386      385      388      391
     1063   1      387      385      388      389
     1064   1      387      385      388      390
     1065   2      387      385      388      391
     1066   2      382      385      388      389
     1067   2      382      385      388      390
     1068   3      382      385      388      391
     1069   2      385      388      391      392
     1070   2      385      388      391      393
     1071   3      385      388      391      394
     1072   1      389      388      391      392
     1073   1      389      388      391      393
     1074   2      389      388      391      394
     1075   1      390      388      391      392
     1076   1      390      388      391      393
     1077   2      390      388      391      394
     1078   1      392      391      394      395
     1079   1      392      391      394      396
     1080   2      392      391      394      397
     1081   1      393      391      394      395
     1082   1      393      391      394      396
     1083   2      393      391      394      397
     1084   2      388      391      394      395
     1085   2      388      391      394      396
     1086   3      388      391      394      397
     1087   2      395      394      397      400
     1088   1      395      394      397      398
     1089   1      395      394      397      399
     1090   2      396      394      397      400
     1091   1      396      394      397      398
     1092   1      396      394      397      399
     1093   3      391      394      397      400
     1094   2      391      394      397      398
     1095   2      391      394      397      399
     1096   2      394      397      400      401
     1097   2      394      397      400      402
     1098   3      394      397      400      403
     1099   1      398      397      400      401
     1100   1      398      397      400      402
     1101   2      398      397      400      403
     1102   1      399      397      400      401
     1103   1      399      397      400      402
     1104   2      399      397      400      403
     1105   1      401      400      403      404
     1106   1      401      400      403      405
     1107   2      401      400      403      406
     1108   1      402      400      403      404
     1109   1      402      400      403      405
     1110   2      402      400      403      406
     1111   2      397      400      403      404
     1112   2      397      400      403      405
     1113   3      397      400      403      406
     1114   2      400      403      406      408
     1115   3      400      403      406      409
     1116   2      400      403      406      407
     1117   1      404      403      406      408
     1118   2      404      403      406      409
     1119   1      404      403      406      407
     1120   1      405      403      406      408
     1121   2      405      403      406      409
     1122   1      405      403      406      407
     1123   1      408      406      409      410
     1124   1      408      406      409      411
     1125   2      408      406      409      412
     1126   2      403      406      409      410
     1127   2      403      406      409      411
     1128   3      403      406      409      412
     1129   1      407      406      409      410
     1130   1      407      406      409      411
     1131   2      407      406      409      412
     1132   1      410      409      412      413
     1133   1      410      409      412      414
     1134   2      410      409      412      415
     1135   1      411      409      412      413
     1136   1      411      409      412      414
     1137   2      411      409      412      415
     1138   2      406      409      412      413
     1139   2      406      409      412      414
     1140   3      406      409      412      415
     1141   2      409      412      415      416
     1142   2      409      412      415      417
     1143   3      409      412      415      418
     1144   1      413      412      415      416
     1145   1      413      412      415      417
     1146   2      413      412      415      418
     1147   1      414      412      415      416
     1148   1      414      412      415      417
     1149   2      414      412      415      418
     1150   1      416      415      418      419
     1151   1      416      415      418      420
     1152   1      417      415      418      419
     1153   1      417      415      418      420
     1154   2      412      415      418      419
     1155   2      412      415      418      420
     1156   1      422      421      424      425
     1157   1      422      421      424      426
     1158   2      422      421      424      427
     1159   1      423      421      424      425
     1160   1      423      421      424      426
     1161   2      423      421      424      427
     1162   1      425      424      427      428
     1163   1      425      424      427      429
     1164   2      425      424      427      430
     1165   1      426      424      427      428
     1166   1      426      424      427      429
     1167   2      426      424      427      430
     1168   2      421      424      427      428
     1169   2      421      424      427      429
     1170   3      421      424      427      430
     1171   2      424      427      430      432
     1172   3      424      427      430      433
     1173   2      424      427      430      431
     1174   1      428      427      430      432
     1175   2      428      427      430      433
     1176   1      428      427      430      431
     1177   1      429      427      430      432
     1178   2      429      427      430      433
     1179   1      429      427      430      431
     1180   1      432      430      433      434
     1181   1      432      430      433      435
     1182   2      432      430      433      436
     1183   2      427      430      433      434
     1184   2      427      430      433      435
     1185   3      427      430      433      436
     1186   1      431      430      433      434
     1187   1      431      430      433      435
     1188   2      431      430      433      436
     1189   1      434      433      436      437
     1190   1      434      433      436      438
     1191   2      434      433      436      439
     1192   1      435      433      436      437
     1193   1      435      433      436      438
     1194   2      435      433      436      439
     1195   2      430      433      436      437
     1196   2      430      433      436      438
     1197   3      430      433      436      439
     1198   2      433      436      439      440
     1199   2      433      436      439      441
     1200   3      433      436      439      442
     1201   1      437      436      439      440
     1202   1      437      436      439      441
     1203   2      437      436      439      442
     1204   1      438      436      439      440
     1205   1      438      436      439      441
     1206   2      438      436      439      442
     1207   1      440      439      442      443
     1208   1      440      439      442      444
     1209   2      440      439      442      445
     1210   1      441      439      442      443
     1211   1      441      439      442      444
     1212   2      441      439      442      445
     1213   2      436      439      442      443
     1214   2      436      439      442      444
     1215   3      436      439      442      445
     1216   2      443      442      445      448
     1217   1      443      442      445      446
     1218   1      443      442      445      447
     1219   2      444      442      445      448
     1220   1      444      442      445      446
     1221   1      444      442      445      447
     1222   3      439      442      445      448
     1223   2      439      442      445      446
     1224   2      439      442      445      447
     1225   2      442      445      448      449
     1226   2      442      445      448      450
     1227   3      442      445      448      451
     1228   1      446      445      448      449
     1229   1      446      445      448      450
     1230   2      446      445      448      451
     1231   1      447      445      448      449
     1232   1      447      445      448      450
     1233   2      447      445      448      451
     1234   1      449      448      451      452
     1235   1      449      448      451      453
     1236   2      449      448      451      454
     1237   1      450      448      451      452
     1238   1      450      448      451      453
     1239   2      450      448      451      454
     1240   2      445      448      451      452
     1241   2      445      448      451      453
     1242   3      445      448      451      454
     1243   2      448      451      454      456
     1244   3      448      451      454      457
     1245   2      448      451      454      455
     1246   1      452      451      454      456
     1247   2      452      451      454      457
     1248   1      452      451      454      455
     1249   1      453      451      454      456
     1250   2      453      451      454      457
     1251   1      453      451      454      455
     1252   1      456      454      457      458
     1253   1      456      454      457      459
     1254   2      456      454      457      460
     1255   2      451      454      457      458
     1256   2      451      454      457      459
     1257   3      451      454      457      460
     1258   1      455      454      457      458
     1259   1      455      454      457      459
     1260   2      455      454      457      460
     1261   1      458      457      460      461
     1262   1      458      457      460      462
     1263   2      458      457      460      463
     1264   1      459      457      460      461
     1265   1      459      457      460      462
     1266   2      459      457      460      463
     1267   2      454      457      460      461
     1268   2      454      457      460      462
     1269   3      454      457      460      463
     1270   2      457      460      463      464
     1271   2      457      460      463      465
     1272   3      457      460      463      466
     1273   1      461      460      463      464
     1274   1      461      460      463      465
     1275   2      461      460      463      466
     1276   1      462      460      463      464
     1277   1      462      460      463      465
     1278   2      462      460      463      466
     1279   1      464      463      466      467
     1280   1      464      463      466      468
     1281   2      464      463      466      469
     1282   1      465      463      466      467
     1283   1      465      463      466      468
     1284   2      465      463      466      469
     1285   2      460      463      466      467
     1286   2      460      463      466      468
     1287   3      460      463      466      469
     1288   2      467      466      469      472
     1289   1      467      466      469      470
     1290   1      467      466      469      471
     1291   2      468      466      469      472
     1292   1      468      466      469      470
     1293   1      468      466      469      471
     1294   3      463      466      469      472
     1295   2      463      466      469      470
     1296   2      463      466      469      471
     1297   2      466      469      472      473
     1298   2      466      469      472      474
     1299   3      466      469      472      475
     1300   1      470      469      472      473
     1301   1      470      469      472      474
     1302   2      470      469      472      475
     1303   1      471      469      472      473
     1304   1      471      469      472      474
     1305   2      471      469      472      475
     1306   1      473      472      475      476
     1307   1      473      472      475      477
     1308   2      473      472      475      478
     1309   1      474      472      475      476
     1310   1      474      472      475      477
     1311   2      474      472      475      478
     1312   2      469      472      475      476
     1313   2      469      472      475      477
     1314   3      469      472      475      478
     1315   2      472      475      478      480
     1316   2      472      475      478      479
     1317   1      476      475      478      480
     1318   1      476      475      478      479
     1319   1      477      475      478      480
     1320   1      477      475      478      479
     1321   1      482      481      484      485
     1322   1      482      481      484      486
     1323   2      482      481      484      487
     1324   1      483      481      484      485
     1325   1      483      481      484      486
     1326   2      483      481      484      487
     1327   2      481      484      487      488
     1328   2      481      484      487      489
     1329   3      481      484      487      490
     1330   1      485      484      487      488
     1331   1      485      484      487      489
     1332   2      485      484      487      490
     1333   1      486      484      487      488
     1334   1      486      484      487      489
     1335   2      486      484      487      490
     1336   1      488      487      490      491
     1337   1      488      487      490      492
     1338   2      488      487      490      493
     1339   1      489      487      490      491
     1340   1      489      487      490      492
     1341   2      489      487      490      493
     1342   2      484      487      490      491
     1343   2      484      487      490      492
     1344   3      484      487      490      493
     1345   2      491      490      493      496
     1346   1      491      490      493      494
     1347   1      491      490      493      495
     1348   2      492      490      493      496
     1349   1      492      490      493      494
     1350   1      492      490      493      495
     1351   3      487      490      493      496
     1352   2      487      490      493      494
     1353   2      487      490      493      495
     1354   2      490      493      496      497
     1355   2      490      493      496      498
     1356   3      490      493      496      499
     1357   1      494      493      496      497
     1358   1      494      493      496      498
     1359   2      494      493      496      499
     1360   1      495      493      496      497
     1361   1      495      493      496      498
     1362   2      495      493      496      499
     1363   1      497      496      499      500
     1364   1      497      496      499      501
     1365   2      497      496      499      502
     1366   1      498      496      499      500
     1367   1      498      496      499      501
     1368   2      498      496      499      502
     1369   2      493      496      499      500
     1370   2      493      496      499      501
     1371   3      493      496      499      502
     1372   2      496      499      502      504
     1373   3      496      499      502      505
     1374   2      496      499      502      503
     1375   1      500      499      502      504
     1376   2      500      499      502      505
     1377   1      500      499      502      503
     1378   1      501      499      502      504
     1379   2      501      499      502      505
     1380   1      501      499      502      503
     1381   1      504      502      505      506
     1382   1      504      502      505      507
     1383   2      504      502      505      508
     1384   2      499      502      505      506
     1385   2      499      502      505      507
     1386   3      499      502      505      508
     1387   1      503      502      505      506
     1388   1      503      502      505      507
     1389   2      503      502      505      508
     1390   1      506      505      508      509
     1391   1      506      505      508      510
     1392   2      506      505      508      511
     1393   1      507      505      508      509
     1394   1      507      505      508      510
     1395   2      507      505      508      511
     1396   2      502      505      508      509
     1397   2      502      505      508      510
     1398   3      502      505      508      511
     1399   2      505      508      511      512
     1400   2      505      508      511      513
     1401   3      505      508      511      514
     1402   1      509      508      511      512
     1403   1      509      508      511      513
     1404   2      509      508      511      514
     1405   1      510      508      511      512
     1406   1      510      508      511      513
     1407   2      510      508      511      514
     1408   1      512      511      514      515
     1409   1      512      511      514      516
     1410   2      512      511      514      517
     1411   1      513      511      514      515
     1412   1      513      511      514      516
     1413   2      513      511      514      517
     1414   2      508      511      514      515
     1415   2      508      511      514      516
     1416   3      508      511      514      517
     1417   2      515      514      517      520
     1418   1      515      514      517      518
     1419   1      515      514      517      519
     1420   2      516      514      517      520
     1421   1      516      514      517      518
     1422   1      516      514      517      519
     1423   3      511      514      517      520
     1424   2      511      514      517      518
     1425   2      511      514      517      519
     1426   2      514      517      520      521
     1427   2      514      517      520      522
     1428   3      514      517      520      523
     1429   1      518      517      520      521
     1430   1      518      517      520      522
     1431   2      518      517      520      523
     1432   1      519      517      520      521
     1433   1      519      517      520      522
     1434   2      519      517      520      523
     1435   1      521      520      523      524
     1436   1      521      520      523      525
     1437   2      521      520      523      526
     1438   1      522      520      523      524
     1439   1      522      520      523      525
     1440   2      522      520      523      526
     1441   2      517      520      523      524
     1442   2      517      520      523      525
     1443   3      517      520      523      526
     1444   2      520      523      526      528
     1445   3      520      523      526      529
     1446   2      520      523      526      527
     1447   1      524      523      526      528
     1448   2      524      523      526      529
     1449   1      524      523      526      527
     1450   1      525      523      526      528
     1451   2      525      523      526      529
     1452   1      525      523      526      527
     1453   1      528      526      529      530
     1454   1      528      526      529      531
     1455   2      528      526      529      532
     1456   2      523      526      529      530
     1457   2      523      526      529      531
     1458   3      523      526      529      532
     1459   1      527      526      529      530
     1460   1      527      526      529      531
     1461   2      527      526      529      532
     1462   1      530      529      532      533
     1463   1      530      529      532      534
     1464   2      530      529      532      535
     1465   1      531      529      532      533
     1466   1      531      529      532      534
     1467   2      531      529      532      535
     1468   2      526      529      532      533
     1469   2      526      529      532      534
     1470   3      526      529      532      535
     1471   2      529      532      535      536
     1472   2      529      532      535      537
     1473   3      529      532      535      538
     1474   1      533      532      535      536
     1475   1      533      532      535      537
     1476   2      533      532      535      538
     1477   1      534      532      535      536
     1478   1      534      532      535      537
     1479   2      534      532      535      538
     1480   1      536      535      538      539
     1481   1      536      535      538      540
     1482   1      537      535      538      539
     1483   1      537      535      538      540
     1484   2      532      535      538      539
     1485   2      532      535      538      540
     1486   1      542      541      544      545
     1487   1      542      541      544      546
     1488   2      542      541      544      547
     1489   1      543      541      544      545
     1490   1      543      541      544      546
     1491   2      543      541      544      547
     1492   1      545      544      547      548
     1493   1      545      544      547      549
     1494   2      545      544      547      550
     1495   1      546      544      547      548
     1496   1      546      544      547      549
     1497   2      546      544      547      550
     1498   2      541      544      547      548
     1499   2      541      544      547      549
     1500   3      541      544      547      550
     1501   2      544      547      550      552
     1502   3      544      547      550      553
     1503   2      544      547      550      551
     1504   1      548      547      550      552
     1505   2      548      547      550      553
     1506   1      548      547      550      551
     1507   1      549      547      550      552
     1508   2      549      547      550      553
     1509   1      549      547      550      551
     1510   1      552      550      553      554
     1511   1      552      550      553      555
     1512   2      552      550      553      556
     1513   2      547      550      553      554
     1514   2      547      550      553      555
     1515   3      547      550      553      556
     1516   1      551      550      553      554
     1517   1      551      550      553      555
     1518   2      551      550      553      556
     1519   1      554      553      556      557
     1520   1      554      553      556      558
     1521   2      554      553      556      559
     1522   1      555      553      556      557
     1523   1      555      553      556      558
     1524   2      555      553      556      559
     1525   2      550      553      556      557
     1526   2      550      553      556      558
     1527   3      550      553      556      559
     1528   2      553      556      559      560
     1529   2      553      556      559      561
     1530   3      553      556      559      562
     1531   1      557      556      559      560
     1532   1      557      556      559      561
     1533   2      557      556      559      562
     1534   1      558      556      559      560
     1535   1      558      556      559      561
     1536   2      558      556      559      562
     1537   1      560      559      562      563
     1538   1      560      559      562      564
     1539   2      560      559      562      565
     1540   1      561      559      562      563
     1541   1      561      559      562      564
     1542   2      561      559      562      565
     1543   2      556      559      562      563
     1544   2      556      559      562      564
     1545   3      556      559      562      565
     1546   2      563      562      565      568
     1547   1      563      562      565      566
     1548   1      563      562      565      567
     1549   2      564      562      565      568
     1550   1      564      562      565      566
     1551   1      564      562      565      567
     1552   3      559      562      565      568
     1553   2      559      562      565      566
     1554   2      559      562      565      567
     1555   2      562      565      568      569
     1556   2      562      565      568      570
     1557   3      562      565      568      571
     1558   1      566      565      568      569
     1559   1      566      565      568      570
     1560   2      566      565      568      571
     1561   1      567      565      568      569
     1562   1      567      565      568      570
     1563   2      567      565      568      571
     1564   1      569      568      571      572
     1565   1      569      568      571      573
     1566   2      569      568      571      574
     1567   1      570      568      571      572
     1568   1      570      568      571      573
     1569   2      570      568      571      574
     1570   2      565      568      571      572
     1571   2      565      568      571      573
     1572   3      565      568      571      574
     1573   2      568      571      574      576
     1574   3      568      571      574      577
     1575   2      568      571      574      575
     1576   1      572      571      574      576
     1577   2      572      571      574      577
     1578   1      572      571      574      575
     1579   1      573      571      574      576
     1580   2      573      571      574      577
     1581   1      573      571      574      575
     1582   1      576      574      577      578
     1583   1      576      574      577      579
     1584   2      576      574      577      580
     1585   2      571      574      577      578
     1586   2      571      574      577      579
     1587   3      571      574      577      580
     1588   1      575      574      577      578
     1589   1      575      574      577      579
     1590   2      575      574      577      580
     1591   1      578      577      580      581
     1592   1      578      577      580      582
     1593   2      578      577      580      583
     1594   1      579      577      580      581
     1595   1      579      577      580      582
     1596   2      579      577      580      583
     1597   2      574      577      580      581
     1598   2      574      577      580      582
     1599   3      574      577      580      583
     1600   2      577      580      583      584
     1601   2      577      580      583      585
     1602   3      577      580      583      586
     1603   1      581      580      583      584
     1604   1      581      580      583      585
     1605   2      581      580      583      586
     1606   1      582      580      583      584
     1607   1      582      580      583      585
     1608   2      582      580      583      586
     1609   1      584      583      586      587
     1610   1      584      583      586      588
     1611   2      584      583      586      589
     1612   1      585      583      586      587
     1613   1      585      583      586      588
     1614   2      585      583      586      589
     1615   2      580      583      586      587
     1616   2      580      583      586      588
     1617   3      580      583      586      589
     1618   2      587      586      589      592
     1619   1      587      586      589      590
     1620   1      587      586      589      591
     1621   2      588      586      589      592
     1622   1      588      586      589      590
     1623   1      588      586      589      591
     1624   3      583      586      589      592
     1625   2      583      586      589      590
     1626   2      583      586      589      591
     1627   2      586      589      592      593
     1628   2      586      589      592      594
     1629   3      586      589      592      595
     1630   1      590      589      592      593
     1631   1      590      589      592      594
     1632   2      590      589      592      595
     1633   1      591      589      592      593
     1634   1      591      589      592      594
     1635   2      591      589      592      595
     1636   1      593      592      595      596
     1637   1      593      592      595      597
     1638   2      593      592      595      598
     1639   1      594      592      595      596
     1640   1      594      592      595      597
     1641   2      594      592      595      598
     1642   2      589      592      595      596
     1643   2      589      592      595      597
     1644   3      589      592      595      598
     1645   2      592      595      598      600
     1646   2      592      595      598      599
     1647   1      596      595      598      600
     1648   1      596      595      598      599
     1649   1      597      595      598      600
     1650   1      597      595      598      599
     1651   1      602      601      604      605
     1652   1      602      601      604      606
     1653   2      602      601      604      607
     1654   1      603      601      604      605
     1655   1      603      601      604      606
     1656   2      603      601      604      607
     1657   2      601      604      607      608
     1658   2      601      604      607      609
     1659   3      601      604      607      610
     1660   1      605      604      607      608
     1661   1      605      604      607      609
     1662   2      605      604      607      610
     1663   1      606      604      607      608
     1664   1      606      604      607      609
     1665   2      606      604      607      610
     1666   1      608      607      610      611
     1667   1      608      607      610      612
     1668   2      608      607      610      613
     1669   1      609      607      610      611
     1670   1      609      607      610      612
     1671   2      609      607      610      613
     1672   2      604      607      610      611
     1673   2      604      607      610      612
     1674   3      604      607      610      613
     1675   2      611      610      613      616
     1676   1      611      610      613      614
     1677   1      611      610      613      615
     1678   2      612      610      613      616
     1679   1      612      610      613      614
     1680   1      612      610      613      615
     1681   3      607      610      613      616
     1682   2      607      610      613      614
     1683   2      607      610      613      615
     1684   2      610      613      616      617
     1685   2      610      613      616      618
     1686   3      610      613      616      619
     1687   1      614      613      616      617
     1688   1      614      613      616      618
     1689   2      614      613      616      619
     1690   1      615      613      616      617
     1691   1      615      613      616      618
     1692   2      615      613      616      619
     1693   1      617      616      619      620
     1694   1      617      616      619      621
     1695   2      617      616      619      622
     1696   1      618      616      619      620
     1697   1      618      616      619      621
     1698   2      618      616      619      622
     1699   2      613      616      619      620
     1700   2      613      616      619      621
     1701   3      613      616      619      622
     1702   2      616      619      622      624
     1703   3      616      619      622      625
     1704   2      616      619      622      623
     1705   1      620      619      622      624
     1706   2      620      619      622      625
     1707   1      620      619      622      623
     1708   1      621      619      622      624
     1709   2      621      619      622      625
     1710   1      621      619      622      623
     1711   1      624      622      625      626
     1712   1      624      622      625      627
     1713   2      624      622      625      628
     1714   2      619      622      625      626
     1715   2      619      622      625      627
     1716   3      619      622      625      628
     1717   1      623      622      625      626
     1718   1      623      622      625      627
     1719   2      623      622      625      628
     1720   1      626      625      628      629
     1721   1      626      625      628      630
     1722   2      626      625      628      631
     1723   1      627      625      628      629
     1724   1      627      625      628      630
     1725   2      627      625      628      631
     1726   2      622      625      628      629
     1727   2      622      625      628      630
     1728   3      622      625      628      631
     1729   2      625      628      631      632
     1730   2      625      628      631      633
     1731   3      625      628      631      634
     1732   1      629      628      631      632
     1733   1      629      628      631      633
     1734   2      629      628      631      634
     1735   1      630      628      631      632
     1736   1      630      628      631      633
     1737   2      630      628      631      634
     1738   1      632      631      634      635
     1739   1      632      631      634      636
     1740   2      632      631      634      637
     1741   1      633      631      634      635
     1742   1      633      631      634      636
     1743   2      633      631      634      637
     1744   2      628      631      634      635
     1745   2      628      631      634      636
     1746   3      628      631      634      637
     1747   2      635      634      637      640
     1748   1      635      634      637      638
     1749   1      635      634      637      639
     1750   2      636      634      637      640
     1751   1      636      634      637      638
     1752   1      636      634      637      639
     1753   3      631      634      637      640
     1754   2      631      634      637      638
     1755   2      631      634      637      639
     1756   2      634      637      640      641
     1757   2      634      637      640      642
     1758   3      634      637      640      643
     1759   1      638      637      640      641
     1760   1      638      637      640      642
     1761   2      638      637      640      643
     1762   1      639      637      640      641
     1763   1      639      637      640      642
     1764   2      639      637      640      643
     1765   1      641      640      643      644
     1766   1      641      640      643      645
     1767   2      641      640      643      646
     1768   1      642      640      643      644
     1769   1      642      640      643      645
     1770   2      642      640      643      646
     1771   2      637      640      643      644
     1772   2      637      640      643      645
     1773   3      637      640      643      646
     1774   2      640      643      646      648
     1775   3      640      643      646      649
     1776   2      640      643      646      647
     1777   1      644      643      646      648
     1778   2      644      643      646      649
     1779   1      644      643      646      647
     1780   1      645      643      646      648
     1781   2      645      643      646      649
     1782   1      645      643      646      647
     1783   1      648      646      649      650
     1784   1      648      646      649      651
     1785   2      648      646      649      652
     1786   2      643      646      649      650
     1787   2      643      646      649      651
     1788   3      643      646      649      652
     1789   1      647      646      649      650
     1790   1      647      646      649      651
     1791   2      647      646      649      652
     1792   1      650      649      652      653
     1793   1      650      649      652      654
     1794   2      650      649      652      655
     1795   1      651      649      652      653
     1796   1      651      649      652      654
     1797   2      651      649      652      655
     1798   2      646      649      652      653
     1799   2      646      649      652      654
     1800   3      646      649      652      655
     1801   2      649      652      655      656
     1802   2      649      652      655      657
     1803   3      649      652      655      658
     1804   1      653      652      655      656
     1805   1      653      652      655      657
     1806   2      653      652      655      658
     1807   1      654      652      655      656
     1808   1      654      652      655      657
     1809   2      654      652      655      658
     1810   1      656      655      658      659
     1811   1      656      655      658      660
     1812   1      657      655      658      659
     1813   1      657      655      658      660
     1814   2      652      655      658      659
     1815   2      652      655      658      660
     1816   1      662      661      664      665
     1817   1      662      661      664      666
     1818   2      662      661      664      667
     1819   1      663      661      664      665
     1820   1      663      661      664      666
     1821   2      663      661      664      667
     1822   1      665      664      667      668
     1823   1      665      664      667      669
     1824   2      665      664      667      670
     1825   1      666      664      667      668
     1826   1      666      664      667      669
     1827   2      666      664      667      670
     1828   2      661      664      667      668
     1829   2      661      664      667      669
     1830   3      661      664      667      670
     1831   2      664      667      670      672
     1832   3      664      667      670      673
     1833   2      664      667      670      671
     1834   1      668      667      670      672
     1835   2      668      667      670      673
     1836   1      668      667      670      671
     1837   1      669      667      670      672
     1838   2      669      667      670      673
     1839   1      669      667      670      671
     1840   1      672      670      673      674
     1841   1      672      670      673      675
     1842   2      672      670      673      676
     1843   2      667      670      673      674
     1844   2      667      670      673      675
     1845   3      667      670      673      676
     1846   1      671      670      673      674
     1847   1      671      670      673      675
     1848   2      671      670      673      676
     1849   1      674      673      676      677
     1850   1      674      673      676      678
     1851   2      674      673      676      679
     1852   1      675      673      676      677
     1853   1      675      673      676      678
     1854   2      675      673      676      679
     1855   2      670      673      676      677
     1856   2      670      673      676      678
     1857   3      670      673      676      679
     1858   2      673      676      679      680
     1859   2      673      676      679      681
     1860   3      673      676      679      682
     1861   1      677      676      679      680
     1862   1      677      676      679      681
     1863   2      677      676      679      682
     1864   1      678      676      679      680
     1865   1      678      676      679      681
     1866   2      678      676      679      682
     1867   1      680      679      682      683
     1868   1      680      679      682      684
     1869   2      680      679      682      685
     1870   1      681      679      682      683
     1871   1      681      679      682      684
     1872   2      681      679      682      685
     1873   2      676      679      682      683
     1874   2      676      679      682      684
     1875   3      676      679      682      685
     1876   2      683      682      685      688
     1877   1      683      682      685      686
     1878   1      683      682      685      687
     1879   2      684      682      685      688
     1880   1      684      682      685      686
     1881   1      684      682      685      687
     1882   3      679      682      685      688
     1883   2      679      682      685      686
     1884   2      679      682      685      687
     1885   2      682      685      688      689
     1886   2      682      685      688      690
     1887   3      682      685      688      691
     1888   1      686      685      688      689
     1889   1      686      685      688      690
     1890   2      686      685      688      691
     1891   1      687      685      688      689
     1892   1      687      685      688      690
     1893   2      687      685      688      691
     1894   1      689      688      691      692
     1895   1      689      688      691      693
     1896   2      689      688      691      694
     1897   1      690      688      691      692
     1898   1      690      688      691      693
     1899   2      690      688      691      694
     1900   2      685      688      691      692
     1901   2      685      688      691      693
     1902   3      685      688      691      694
     1903   2      688      691      694      696
     1904   3      688      691      694      697
     1905   2      688      691      694      695
     1906   1      692      691      694      696
     1907   2      692      691      694      697
     1908   1      692      691      694      695
     1909   1      693      691      694      696
     1910   2      693      691      694      697
     1911   1      693      691      694      695
     1912   1      696      694      697      698
     1913   1      696      694      697      699
     1914   2      696      694      697      700
     1915   2      691      694      697      698
     1916   2      691      694      697      699
     1917   3      691      694      697      700
     1918   1      695      694      697      698
     1919   1      695      694      697      699
     1920   2      695      694      697      700
     1921   1      698      697      700      701
     1922   1      698      697      700      702
     1923   2      698      697      700      703
     1924   1      699      697      700      701
     1925   1      699      697      700      702
     1926   2      699      697      700      703
     1927   2      694      697      700      701
     1928   2      694      697      700      702
     1929   3      694      697      700      703
     1930   2      697      700      703      704
     1931   2      697      700      703      705
     1932   3      697      700      703      706
     1933   1      701      700      703      704
     1934   1      701      700      703      705
     1935   2      701      700      703      706
     1936   1      702      700      703      704
     1937   1      702      700      703      705
     1938   2      702      700      703      706
     1939   1      704      703      706      707
     1940   1      704      703      706      708
     1941   2      704      703      706      709
     1942   1      705      703      706      707
     1943   1      705      703      706      708
     1944   2      705      703      706      709
     1945   2      700      703      706      707
     1946   2      700      703      706      708
     1947   3      700      703      706      709
     1948   2      707      706      709      712
     1949   1      707      706      709      710
     1950   1      707      706      709      711
     1951   2      708      706      709      712
     1952   1      708      706      709      710
     1953   1      708      706      709      711
     1954   3      703      706      709      712
     1955   2      703      706      709      710
     1956   2      703      706      709      711
     1957   2      706      709      712      713
     1958   2      706      709      712      714
     1959   3      706      709      712      715
     1960   1      710      709      712      713
     1961   1      710      709      712      714
     1962   2      710      709      712      715
     1963   1      711      709      712      713
     1964   1      711      709      712      714
     1965   2      711      709      712      715
     1966   1      713      712      715      716
     1967   1      713      712      715      717
     1968   2      713      712      715      718
     1969   1      714      712      715      716
     1970   1      714      712      715      717
     1971   2      714      712      715      718
     1972   2      709      712      715      716
     1973   2      709      712      715      717
     1974   3      709      712      715      718
     1975   2      712      715      718      720
     1976   2      712      715      718      719
     1977   1      716      715      718      720
     1978   1      716      715      718      719
     1979   1      717      715      718      720
     1980   1      717      715      718      719
     1981   1      722      721      724      725
     1982   1      722      721      724      726
     1983   2      722      721      724      727
     1984   1      723      721      724      725
     1985   1      723      721      724      726
     1986   2      723      721      724      727
     1987   2      721      724      727      728
     1988   2      721      724      727      729
     1989   3      721      724      727      730
     1990   1      725      724      727      728
     1991   1      725      724      727      729
     1992   2      725      724      727      730
     1993   1      726      724      727      728
     1994   1      726      724      727      729
     1995   2      726      724      727      730
     1996   1      728      727      730      731
     1997   1      728      727      730      732
     1998   2      728      727      730      733
     1999   1      729      727      730      731
     2000   1      729      727      730      732
     2001   2      729      727      730      733
     2002   2      724      727      730      731
     2003   2      724      727      730      732
     2004   3      724      727      730      733
     2005   2      731      730      733      736
     2006   1      731      730      733      734
     2007   1      731      730      733      735
     2008   2      732      730      733      736
     2009   1      732      730      733      734
     2010   1      732      730      733      735
     2011   3      727      730      733      736
     2012   2      727      730      733      734
     2013   2      727      730      733      735
     2014   2      730      733      736      737
     2015   2      730      733      736      738
     2016   3      730      733      736      739
     2017   1      734      733      736      737
     2018   1      734      733      736      738
     2019   2      734      733      736      739
     2020   1      735      733      736      737
     2021   1      735      733      736      738
     2022   2      735      733      736      739
     2023   1      737      736      739      740
     2024   1      737      736      739      741
     2025   2      737      736      739      742
     2026   1      738      736      739      740
     2027   1      738      736      739      741
     2028   2      738      736      739      742
     2029   2      733      736      739      740
     2030   2      733      736      739      741
     2031   3      733      736      739      742
     2032   2      736      739      742      744
     2033   3      736      739      742      745
     2034   2      736      739      742      743
     2035   1      740      739      742      744
     2036   2      740      739      742      745
     2037   1      740      739      742      743
     2038   1      741      739      742      744
     2039   2      741      739      742      745
     2040   1      741      739      742      743
     2041   1      744      742      745      746
     2042   1      744      742      745      747
     2043   2      744      742      745      748
     2044   2      739      742      745      746
     2045   2      739      742      745      747
     2046   3      739      742      745      748
     2047   1      743      742      745      746
     2048   1      743      742      745      747
     2049   2      743      742      745      748
     2050   1      746      745      748      749
     2051   1      746      745      748      750
     2052   2      746      745      748      751
     2053   1      747      745      748      749
     2054   1      747      745      748      750
     2055   2      747      745      748      751
     2056   2      742      745      748      749
     2057   2      742      745      748      750
     2058   3      742      745      748      751
     2059   2      745      748      751      752
     2060   2      745      748      751      753
     2061   3      745      748      751      754
     2062   1      749      748      751      752
     2063   1      749      748      751      753
     2064   2      749      748      751      754
     2065   1      750      748      751      752
     2066   1      750      748      751      753
     2067   2      750      748      751      754
     2068   1      752      751      754      755
     2069   1      752      751      754      756
     2070   2      752      751      754      757
     2071   1      753      751      754      755
     2072   1      753      751      754      756
     2073   2      753      751      754      757
     2074   2      748      751      754      755
     2075   2      748      751      754      756
     2076   3      748      751      754      757
     2077   2      755      754      757      760
     2078   1      755      754      757      758
     2079   1      755      754      757      759
     2080   2      756      754      757      760
     2081   1      756      754      757      758
     2082   1      756      754      757      759
     2083   3      751      754      757      760
     2084   2      751      754      757      758
     2085   2      751      754      757      759
     2086   2      754      757      760      761
     2087   2      754      757      760      762
     2088   3      754      757      760      763
     2089   1      758      757      760      761
     2090   1      758      757      760      762
     2091   2      758      757      760      763
     2092   1      759      757      760      761
     2093   1      759      757      760      762
     2094   2      759      757      760      763
     2095   1      761      760      763      764
     2096   1      761      760      763      765
     2097   2      761      760      763      766
     2098   1      762      760      763      764
     2099   1      762      760      763      765
     2100   2      762      760      763      766
     2101   2      757      760      763      764
     2102   2      757      760      763      765
     2103   3      757      760      763      766
     2104   2      760      763      766      768
     2105   3      760      763      766      769
     2106   2      760      763      766      767
     2107   1      764      763      766      768
     2108   2      764      763      766      769
     2109   1      764      763      766      767
     2110   1      765      763      766      768
     2111   2      765      763      766      769
     2112   1      765      763      766      767
     2113   1      768      766      769      770
     2114   1      768      766      769      771
     2115   2      768      766      769      772
     2116   2      763      766      769      770
     2117   2      763      766      769      771
     2118   3      763      766      769      772
     2119   1      767      766      769      770
     2120   1      767      766      769      771
     2121   2      767      766      769      772
     2122   1      770      769      772      773
     2123   1      770      769      772      774
     2124   2      770      769      772      775
     2125   1      771      769      772      773
     2126   1      771      769      772      774
     2127   2      771      769      772      775
     2128   2      766      769      772      773
     2129   2      766      769      772      774
     2130   3      766      769      772      775
     2131   2      769      772      775      776
     2132   2      769      772      775      777
     2133   3      769      772      775      778
     2134   1      773      772      775      776
     2135   1      773      772      775      777
     2136   2      773      772      775      778
     2137   1      774      772      775      776
     2138   1      774      772      775      777
     2139   2      774      772      775      778
     2140   1      776      775      778      779
     2141   1      776      775      778      780
     2142   1      777      775      778      779
     2143   1      777      775      778      780
     2144   2      772      775      778      779
     2145   2      772      775      778      780
     2146   1      782      781      784      785
     2147   1      782      781      784      786
     2148   2      782      781      784      787
     2149   1      783      781      784      785
     2150   1      783      781      784      786
     2151   2      783      781      784      787
     2152   1      785      784      787      788
     2153   1      785      784      787      789
     2154   2      785      784      787      790
     2155   1      786      784      787      788
     2156   1      786      784      787      789
     2157   2      786      784      787      790
     2158   2      781      784      787      788
     2159   2      781      784      787      789
     2160   3      781      784      787      790
     2161   2      784      787      790      792
     2162   3      784      787      790      793
     2163   2      784      787      790      791
     2164   1      788      787      790      792
     2165   2      788      787      790      793
     2166   1      788      787      790      791
     2167   1      789      787      790      792
     2168   2      789      787      790      793
     2169   1      789      787      790      791
     2170   1      792      790      793      794
     2171   1      792      790      793      795
     2172   2      792      790      793      796
     2173   2      787      790      793      794
     2174   2      787      790      793      795
     2175   3      787      790      793      796
     2176   1      791      790      793      794
     2177   1      791      790      793      795
     2178   2      791      790      793      796
     2179   1      794      793      796      797
     2180   1      794      793      796      798
     2181   2      794      793      796      799
     2182   1      795      793      796      797
     2183   1      795      793      796      798
     2184   2      795      793      796      799
     2185   2      790      793      796      797
     2186   2      790      793      796      798
     2187   3      790      793      796      799
     2188   2      793      796      799      800
     2189   2      793      796      799      801
     2190   3      793      796      799      802
     2191   1      797      796      799      800
     2192   1      797      796      799      801
     2193   2      797      796      799      802
     2194   1      798      796      799      800
     2195   1      798      796      799      801
     2196   2      798      796      799      802
     2197   1      800      799      802      803
     2198   1      800      799      802      804
     2199   2      800      799      802      805
     2200   1      801      799      802      803
     2201   1      801      799      802      804
     2202   2      801      799      802      805
     2203   2      796      799      802      803
     2204   2      796      799      802      804
     2205   3      796      799      802      805
     2206   2      803      802      805      808
     2207   1      803      802      805      806
     2208   1      803      802      805      807
     2209   2      804      802      805      808
     2210   1      804      802      805      806
     2211   1      804      802      805      807
     2212   3      799      802      805      808
     2213   2      799      802      805      806
     2214   2      799      802      805      807
     2215   2      802      805      808      809
     2216   2      802      805      808      810
     2217   3      802      805      808      811
     2218   1      806      805      808      809
     2219   1      806      805      808      810
     2220   2      806      805      808      811
     2221   1      807      805      808      809
     2222   1      807      805      808      810
     2223   2      807      805      808      811
     2224   1      809      808      811      812
     2225   1      809      808      811      813
     2226   2      809      808      811      814
     2227   1      810      808      811      812
     2228   1      810      808      811      813
     2229   2      810      808      811      814
     2230   2      805      808      811      812
     2231   2      805      808      811      813
     2232   3      805      808      811      814
     2233   2      808      811      814      816
     2234   3      808      811      814      817
     2235   2      808      811      814      815
     2236   1      812      811      814      816
     2237   2      812      811      814      817
     2238   1      812      811      814      815
     2239   1      813      811      814      816
     2240   2      813      811      814      817
     2241   1      813      811      814      815
     2242   1      816      814      817      818
     2243   1      816      814      817      819
     2244   2      816      814      817      820
     2245   2      811      814      817      818
     2246   2      811      814      817      819
     2247   3      811      814      817      820
     2248   1      815      814      817      818
     2249   1      815      814      817      819
     2250   2      815      814      817      820
     2251   1      818      817      820      821
     2252   1      818      817      820      822
     2253   2      818      817      820      823
     2254   1      819      817      820      821
     2255   1      819      817      820      822
     2256   2      819      817      820      823
     2257   2      814      817      820      821
     2258   2      814      817      820      822
     2259   3      814      817      820      823
     2260   2      817      820      823      824
     2261   2      817      820      823      825
     2262   3      817      820      823      826
     2263   1      821      820      823      824
     2264   1      821      820      823      825
     2265   2      821      820      823      826
     2266   1      822      820      823      824
     2267   1      822      820      823      825
     2268   2      822      820      823      826
     2269   1      824      823      826      827
     2270   1      824      823      826      828
     2271   2      824      823      826      829
     2272   1      825      823      826      827
     2273   1      825      823      826      828
     2274   2      825      823      826      829
     2275   2      820      823      826      827
     2276   2      820      823      826      828
     2277   3      820      823      826      829
     2278   2      827      826      829      832
     2279   1      827      826      829      830
     2280   1      827      826      829      831
     2281   2      828      826      829      832
     2282   1      828      826      829      830
     2283   1      828      826      829      831
     2284   3      823      826      829      832
     2285   2      823      826      829      830
     2286   2      823      826      829      831
     2287   2      826      829      832      833
     2288   2      826      829      832      834
     2289   3      826      829      832      835
     2290   1      830      829      832      833
     2291   1      830      829      832      834
     2292   2      830      829      832      835
     2293   1      831      829      832      833
     2294   1      831      829      832      834
     2295   2      831      829      832      835
     2296   1      833      832      835      836
     2297   1      833      832      835      837
     2298   2      833      832      835      838
     2299   1      834      832      835      836
     2300   1      834      832      835      837
     2301   2      834      832      835      838
     2302   2      829      832      835      836
     2303   2      829      832      835      837
     2304   3      829      832      835      838
     2305   2      832      835      838      840
     2306   2      832      835      838      839
     2307   1      836      835      838      840
     2308   1      836      835      838      839
     2309   1      837      835      838      840
     2310   1      837      835      838      839
     2311   1      842      841      844      845
     2312   1      842      841      844      846
     2313   2      842      841      844      847
     2314   1      843      841      844      845
     2315   1      843      841      844      846
     2316   2      843      841      844      847
     2317   2      841      844      847      848
     2318   2      841      844      847      849
     2319   3      841      844      847      850
     2320   1      845      844      847      848
     2321   1      845      844      847      849
     2322   2      845      844      847      850
     2323   1      846      844      847      848
     2324   1      846      844      847      849
     2325   2      846      844      847      850
     2326   1      848      847      850      851
     2327   1      848      847      850      852
     2328   2      848      847      850      853
     2329   1      849      847      850      851
     2330   1      849      847      850      852
     2331   2      849      847      850      853
     2332   2      844      847      850      851
     2333   2      844      847      850      852
     2334   3      844      847      850      853
     2335   2      851      850      853      856
     2336   1      851      850      853      854
     2337   1      851      850      853      855
     2338   2      852      850      853      856
     2339   1      852      850      853      854
     2340   1      852      850      853      855
     2341   3      847      850      853      856
     2342   2      847      850      853      854
     2343   2      847      850      853      855
     2344   2      850      853      856      857
     2345   2      850      853      856      858
     2346   3      850      853      856      859
     2347   1      854      853      856      857
     2348   1      854      853      856      858
     2349   2      854      853      856      859
     2350   1      855      853      856      857
     2351   1      855      853      856      858
     2352   2      855      853      856      859
     2353   1      857      856      859      860
     2354   1      857      856      859      861
     2355   2      857      856      859      862
     2356   1      858      856      859      860
     2357   1      858      856      859      861
     2358   2      858      856      859      862
     2359   2      853      856      859      860
     2360   2      853      856      859      861
     2361   3      853      856      859      862
     2362   2      856      859      862      864
     2363   3      856      859      862      865
     2364   2      856      859      862      863
     2365   1      860      859      862      864
     2366   2      860      859      862      865
     2367   1      860      859      862      863
     2368   1      861      859      862      864
     2369   2      861      859      862      865
     2370   1      861      859      862      863
     2371   1      864      862      865      866
     2372   1      864      862      865      867
     2373   2      864      862      865      868
     2374   2      859      862      865      866
     2375   2      859      862      865      867
     2376   3      859      862      865      868
     2377   1      863      862      865      866
     2378   1      863      862      865      867
     2379   2      863      862      865      868
     2380   1      866      865      868      869
     2381   1      866      865      868      870
     2382   2      866      865      868      871
     2383   1      867      865      868      869
     2384   1      867      865      868      870
     2385   2      867      865      868      871
     2386   2      862      865      868      869
     2387   2      862      865      868      870
     2388   3      862      865      868      871
     2389   2      865      868      871      872
     2390   2      865      868      871      873
     2391   3      865      868      871      874
     2392   1      869      868      871      872
     2393   1      869      868      871      873
     2394   2      869      868      871      874
     2395   1      870      868      871      872
     2396   1      870      868      871      873
     2397   2      870      868      871      874
     2398   1      872      871      874      875
     2399   1      872      871      874      876
     2400   2      872      871      874      877
     2401   1      873      871      874      875
     2402   1      873      871      874      876
     2403   2      873      871      874      877
     2404   2      868      871      874      875
     2405   2      868      871      874      876
     2406   3      868      871      874      877
     2407   2      875      874      877      880
     2408   1      875      874      877      878
     2409   1      875      874      877      879
     2410   2      876      874      877      880
     2411   1      876      874      877      878
     2412   1      876      874      877      879
     2413   3      871      874      877      880
     2414   2      871      874      877      878
     2415   2      871      874      877      879
     2416   2      874      877      880      881
     2417   2      874      877      880      882
     2418   3      874      877      880      883
     2419   1      878      877      880      881
     2420   1      878      877      880      882
     2421   2      878      877      880      883
     2422   1      879      877      880      881
     2423   1      879      877      880      882
     2424   2      879      877      880      883
     2425   1      881      880      883      884
     2426   1      881      880      883      885
     2427   2      881      880      883      886
     2428   1      882      880      883      884
     2429   1      882      880      883      885
     2430   2      882      880      883      886
     2431   2      877      880      883      884
     2432   2      877      880      883      885
     2433   3      877      880      883      886
     2434   2      880      883      886      888
     2435   3      880      883      886      889
     2436   2      880      883      886      887
     2437   1      884      883      886      888
     2438   2      884      883      886      889
     2439   1      884      883      886      887
     2440   1      885      883      886      888
     2441   2      885      883      886      889
     2442   1      885      883      886      887
     2443   1      888      886      889      890
     2444   1      888      886      889      891
     2445   2      888      886      889      892
     2446   2      883      886      889      890
     2447   2      883      886      889      891
     2448   3      883      886      889      892
     2449   1      887      886      889      890
     2450   1      887      886      889      891
     2451   2      887      886      889      892
     2452   1      890      889      892      893
     2453   1      890      889      892      894
     2454   2      890      889      892      895
     2455   1      891      889      892      893
     2456   1      891      889      892      894
     2457   2      891      889      892      895
     2458   2      886      889      892      893
     2459   2      886      889      892      894
     2460   3      886      889      892      895
     2461   2      889      892      895      896
     2462   2      889      892      895      897
     2463   3      889      892      895      898
     2464   1      893      892      895      896
     2465   1      893      892      895      897
     2466   2      893      892      895      898
     2467   1      894      892      895      896
     2468   1      894      892      895      897
     2469   2      894      892      895      898
     2470   1      896      895      898      899
     2471   1      896      895      898      900
     2472   1      897      895      898      899
     2473   1      897      895      898      900
     2474   2      892      895      898      899
     2475   2      892      895      898      900
     2476   1      902      901      904      905
     2477   1      902      901      904      906
     2478   2      902      901      904      907
     2479   1      903      901      904      905
     2480   1      903      901      904      906
     2481   2      903      901      904      907
     2482   1      905      904      907      908
     2483   1      905      904      907      909
     2484   2      905      904      907      910
     2485   1      906      904      907      908
     2486   1      906      904      907      909
     2487   2      906      904      907      910
     2488   2      901      904      907      908
     2489   2      901      904      907      909
     2490   3      901      904      907      910
     2491   2      904      907      910      912
     2492   3      904      907      910      913
     2493   2      904      907      910      911
     2494   1      908      907      910      912
     2495   2      908      907      910      913
     2496   1      908      907      910      911
     2497   1      909      907      910      912
     2498   2      909      907      910      913
     2499   1      909      907      910      911
     2500   1      912      910      913      914
     2501   1      912      910      913      915
     2502   2      912      910      913      916
     2503   2      907      910      913      914
     2504   2      907      910      913      915
     2505   3      907      910      913      916
     2506   1      911      910      913      914
     2507   1      911      910      913      915
     2508   2      911      910      913      916
     2509   1      914      913      916      917
     2510   1      914      913      916      918
     2511   2      914      913      916      919
     2512   1      915      913      916      917
     2513   1      915      913      916      918
     2514   2      915      913      916      919
     2515   2      910      913      916      917
     2516   2      910      913      916      918
     2517   3      910      913      916      919
     2518   2      913      916      919      920
     2519   2      913      916      919      921
     2520   3      913      916      919      922
     2521   1      917      916      919      920
     2522   1      917      916      919      921
     2523   2      917      916      919      922
     2524   1      918      916      919      920
     2525   1      918      916      919      921
     2526   2      918      916      919      922
     2527   1      920      919      922      923
     2528   1      920      919      922      924
     2529   2      920      919      922      925
     2530   1      921      919      922      923
     2531   1      921      919      922      924
     2532   2      921      919      922      925
     2533   2      916      919      922      923
     2534   2      916      919      922      924
     2535   3      916      919      922      925
     2536   2      923      922      925      928
     2537   1      923      922      925      926
     2538   1      923      922      925      927
     2539   2      924      922      925      928
     2540   1      924      922      925      926
     2541   1      924      922      925      927
     2542   3      919      922      925      928
     2543   2      919      922      925      926
     2544   2      919      922      925      927
     2545   2      922      925      928      929
     2546   2      922      925      928      930
     2547   3      922      925      928      931
     2548   1      926      925      928      929
     2549   1      926      925      928      930
     2550   2      926      925      928      931
     2551   1      927      925      928      929
     2552   1      927      925      928      930
     2553   2      927      925      928      931
     2554   1      929      928      931      932
     2555   1      929      928      931      933
     2556   2      929      928      931      934
     2557   1      930      928      931      932
     2558   1      930      928      931      933
     2559   2      930      928      931      934
     2560   2      925      928      931      932
     2561   2      925      928      931      933
     2562   3      925      928      931      934
     2563   2      928      931      934      936
     2564   3      928      931      934      937
     2565   2      928      931      934      935
     2566   1      932      931      934      936
     2567   2      932      931      934      937
     2568   1      932      931      934      935
     2569   1      933      931      934      936
     2570   2      933      931      934      937
     2571   1      933      931      934      935
     2572   1      936      934      937      938
     2573   1      936      934      937      939
     2574   2      936      934      937      940
     2575   2      931      934      937      938
     2576   2      931      934      937      939
     2577   3      931      934      937      940
     2578   1      935      934      937      938
     2579   1      935      934      937      939
     2580   2      935      934      937      940
     2581   1      938      937      940      941
     2582   1      938      937      940      942
     2583   2      938      937      940      943
     2584   1      939      937      940      941
     2585   1      939      937      940      942
     2586   2      939      937      940      943
     2587   2      934      937      940      941
     2588   2      934      937      940      942
     2589   3      934      937      940      943
     2590   2      937      940      943      944
     2591   2      937      940      943      945
     2592   3      937      940      943      946
     2593   1      941      940      943      944
     2594   1      941      940      943      945
     2595   2      941      940      943      946
     2596   1      942      940      943      944
     2597   1      942      940      943      945
     2598   2      942      940      943      946
     2599   1      944      943      946      947
     2600   1      944      943      946      948
     2601   2      944      943      946      949
     2602   1      945      943      946      947
     2603   1      945      943      946      948
     2604   2      945      943      946      949
     2605   2      940      943      946      947
     2606   2      940      943      946      948
     2607   3      940      943      946      949
     2608   2      947      946      949      952
     2609   1      947      946      949      950
     2610   1      947      946      949      951
     2611   2      948      946      949      952
     2612   1      948      946      949      950
     2613   1      948      946      949      951
     2614   3      943      946      949      952
     2615   2      943      946      949      950
     2616   2      943      946      949      951
     2617   2      946      949      952      953
     2618   2      946      949      952      954
     2619   3      946      949      952      955
     2620   1      950      949      952      953
     2621   1      950      949      952      954
     2622   2      950      949      952      955
     2623   1      951      949      952      953
     2624   1      951      949      952      954
     2625   2      951      949      952      955
     2626   1      953      952      955      956
     2627   1      953      952      955      957
     2628   2      953      952      955      958
     2629   1      954      952      955      956
     2630   1      954      952      955      957
     2631   2      954      952      955      958
     2632   2      949      952      955      956
     2633   2      949      952      955      957
     2634   3      949      952      955      958
     2635   2      952      955      958      960
     2636   2      952      955      958      959
     2637   1      956      955      958      960
     2638   1      956      955      958      959
     2639   1      957      955      958      960
     2640   1      957      955      958      959
     2641   1      962      961      964      965
     2642   1      962      961      964      966
     2643   2      962      961      964      967
     2644   1      963      961      964      965
     2645   1      963      961      964      966
     2646   2      963      961      964      967
     2647   2      961      964      967      968
     2648   2      961      964      967      969
     2649   3      961      964      967      970
     2650   1      965      964      967      968
     2651   1      965      964      967      969
     2652   2      965      964      967      970
     2653   1      966      964      967      968
     2654   1      966      964      967      969
     2655   2      966      964      967      970
     2656   1      968      967      970      971
     2657   1      968      967      970      972
     2658   2      968      967      970      973
     2659   1      969      967      970      971
     2660   1      969      967      970      972
     2661   2      969      967      970      973
     2662   2      964      967      970      971
     2663   2      964      967      970      972
     2664   3      964      967      970      973
     2665   2      971      970      973      976
     2666   1      971      970      973      974
     2667   1      971      970      973      975
     2668   2      972      970      973      976
     2669   1      972      970      973      974
     2670   1      972      970      973      975
     2671   3      967      970      973      976
     2672   2      967      970      973      974
     2673   2      967      970      973      975
     2674   2      970      973      976      977
     2675   2      970      973      976      978
     2676   3      970      973      976      979
     2677   1      974      973      976      977
     2678   1      974      973      976      978
     2679   2      974      973      976      979
     2680   1      975      973      976      977
     2681   1      975      973      976      978
     2682   2      975      973      976      979
     2683   1      977      976      979      980
     2684   1      977      976      979      981
     2685   2      977      976      979      982
     2686   1      978      976      979      980
     2687   1      978      976      979      981
     2688   2      978      976      979      982
     2689   2      973      976      979      980
     2690   2      973      976      979      981
     2691   3      973      976      979      982
     2692   2      976      979      982      984
     2693   3      976      979      982      985
     2694   2      976      979      982      983
     2695   1      980      979      982      984
     2696   2      980      979      982      985
     2697   1      980      979      982      983
     2698   1      981      979      982      984
     2699   2      981      979      982      985
     2700   1      981      979      982      983
     2701   1      984      982      985      986
     2702   1      984      982      985      987
     2703   2      984      982      985      988
     2704   2      979      982      985      986
     2705   2      979      982      985      987
     2706   3      979      982      985      988
     2707   1      983      982      985      986
     2708   1      983      982      985      987
     2709   2      983      982      985      988
     2710   1      986      985      988      989
     2711   1      986      985      988      990
     2712   2      986      985      988      991
     2713   1      987      985      988      989
     2714   1      987      985      988      990
     2715   2      987      985      988      991
     2716   2      982      985      988      989
     2717   2      982      985      988      990
     2718   3      982      985      988      991
     2719   2      985      988      991      992
     2720   2      985      988      991      993
     2721   3      985      988      991      994
     2722   1      989      988      991      992
     2723   1      989      988      991      993
     2724   2      989      988      991      994
     2725   1      990      988      991      992
     2726   1      990      988      991      993
     2727   2      990      988      991      994
     2728   1      992      991      994      995
     2729   1      992      991      994      996
     2730   2      992      991      994      997
     2731   1      993      991      994      995
     2732   1      993      991      994      996
     2733   2      993      991      994      997
     2734   2      988      991      994      995
     2735   2      988      991      994      996
     2736   3      988      991      994      997
     2737   2      995      994      997      1000
     2738   1      995      994      997      998
     2739   1      995      994      997      999
     2740   2      996      994      997      1000
     2741   1      996      994      997      998
     2742   1      996      994      997      999
     2743   3      991      994      997      1000
     2744   2      991      994      997      998
     2745   2      991      994      997      999
     2746   2      994      997      1000      1001
     2747   2      994      997      1000      1002
     2748   3      994      997      1000      1003
     2749   1      998      997      1000      1001
     2750   1      998      997      1000      1002
     2751   2      998      997      1000      1003
     2752   1      999      997      1000      1001
     2753   1      999      997      1000      1002
     2754   2      999      997      1000      1003
     2755   1      1001      1000      1003      1004
     2756   1      1001      1000      1003      1005
     2757   2      1001      1000      1003      1006
     2758   1      1002      1000      1003      1004
     2759   1      1002      1000      1003      1005
     2760   2      1002      1000      1003      1006
     2761   2      997      1000      1003      1004
     2762   2      997      1000      1003      1005
     2763   3      997      1000      1003      1006
     2764   2      1000      1003      1006      1008
     2765   3      1000      1003      1006      1009
     2766   2      1000      1003      1006      1007
     2767   1      1004      1003      1006      1008
     2768   2      1004      1003      1006      1009
     2769   1      1004      1003      1006      1007
     2770   1      1005      1003      1006      1008
     2771   2      1005      1003      1006      1009
     2772   1      1005      1003      1006      1007
     2773   1      1008      1006      1009      1010
     2774   1      1008      1006      1009      1011
     2775   2      1008      1006      1009      1012
     2776   2      1003      1006      1009      1010
     2777   2      1003      1006      1009      1011
     2778   3      1003      1006      1009      1012
     2779   1      1007      1006      1009      1010
     2780   1      1007      1006      1009      1011
     2781   2      1007      1006      1009      1012
     2782   1      1010      1009      1012      1013
     2783   1      1010      1009      1012      1014
     2784   2      1010      1009      1012      1015
     2785   1      1011      1009      1012      1013
     2786   1      1011      1009      1012      1014
     2787   2      1011      1009      1012      1015
     2788   2      1006      1009      1012      1013
     2789   2      1006      1009      1012      1014
     2790   3      1006      1009      1012      1015
     2791   2      1009      1012      1015      1016
     2792   2      1009      1012      1015      1017
     2793   3      1009      1012      1015      1018
     2794   1      1013      1012      1015      1016
     2795   1      1013      1012      1015      1017
     2796   2      1013      1012      1015      1018
     2797   1      1014      1012      1015      1016
     2798   1      1014      1012      1015      1017
     2799   2      1014      1012      1015      1018
     2800   1      1016      1015      1018      1019
     2801   1      1016      1015      1018      1020
     2802   1      1017      1015      1018      1019
     2803   1      1017      1015      1018      1020
     2804   2      1012      1015      1018      1019
     2805   2      1012      1015      1018      1020
     2806   1      1022      1021      1024      1025
     2807   1      1022      1021      1024      1026
     2808   2      1022      1021      1024      1027
     2809   1      1023      1021      1024      1025
     2810   1      1023      1021      1024      1026
     2811   2      1023      1021      1024      1027
     2812   1      1025      1024      1027      1028
     2813   1      1025      1024      1027      1029
     2814   2      1025      1024      1027      1030
     2815   1      1026      1024      1027      1028
     2816   1      1026      1024      1027      1029
     2817   2      1026      1024      1027      1030
     2818   2      1021      1024      1027      1028
     2819   2      1021      1024      1027      1029
     2820   3      1021      1024      1027      1030
     2821   2      1024      1027      1030      1032
     2822   3      1024      1027      1030      1033
     2823   2      1024      1027      1030      1031
     2824   1      1028      1027      1030      1032
     2825   2      1028      1027      1030      1033
     2826   1      1028      1027      1030      1031
     2827   1      1029      1027      1030      1032
     2828   2      1029      1027      1030      1033
     2829   1      1029      1027      1030      1031
     2830   1      1032      1030      1033      1034
     2831   1      1032      1030      1033      1035
     2832   2      1032      1030      1033      1036
     2833   2      1027      1030      1033      1034
     2834   2      1027      1030      1033      1035
     2835   3      1027      1030      1033      1036
     2836   1      1031      1030      1033      1034
     2837   1      1031      1030      1033      1035
     2838   2      1031      1030      1033      1036
     2839   1      1034      1033      1036      1037
     2840   1      1034      1033      1036      1038
     2841   2      1034      1033      1036      1039
     2842   1      1035      1033      1036      1037
     2843   1      1035      1033      1036      1038
     2844   2      1035      1033      1036      1039
     2845   2      1030      1033      1036      1037
     2846   2      1030      1033      1036      1038
     2847   3      1030      1033      1036      1039
     2848   2      1033      1036      1039      1040
     2849   2      1033      1036      1039      1041
     2850   3      1033      1036      1039      1042
     2851   1      1037      1036      1039      1040
     2852   1      1037      1036      1039      1041
     2853   2      1037      1036      1039      1042
     2854   1      1038      1036      1039      1040
     2855   1      1038      1036      1039      1041
     2856   2      1038      1036      1039      1042
     2857   1      1040      1039      1042      1043
     2858   1      1040      1039      1042      1044
     2859   2      1040      1039      1042      1045
     2860   1      1041      1039      1042      1043
     2861   1      1041      1039      1042      1044
     2862   2      1041      1039      1042      1045
     2863   2      1036      1039      1042      1043
     2864   2      1036      1039      1042      1044
     2865   3      1036      1039      1042      1045
     2866   2      1043      1042      1045      1048
     2867   1      1043      1042      1045      1046
     2868   1      1043      1042      1045      1047
     2869   2      1044      1042      1045      1048
     2870   1      1044      1042      1045      1046
     2871   1      1044      1042      1045      1047
     2872   3      1039      1042      1045      1048
     2873   2      1039      1042      1045      1046
     2874   2      1039      1042      1045      1047
     2875   2      1042      1045      1048      1049
     2876   2      1042      1045      1048      1050
     2877   3      1042      1045      1048      1051
     2878   1      1046      1045      1048      1049
     2879   1      1046      1045      1048      1050
     2880   2      1046      1045      1048      1051
     2881   1      1047      1045      1048      1049
     2882   1      1047      1045      1048      1050
     2883   2      1047      1045      1048      1051
     2884   1      1049      1048      1051      1052
     2885   1      1049      1048      1051      1053
     2886   2      1049      1048      1051      1054
     2887   1      1050      1048      1051      1052
     2888   1      1050      1048      1051      1053
     2889   2      1050      1048      1051      1054
     2890   2      1045      1048      1051      1052
     2891   2      1045      1048      1051      1053
     2892   3      1045      1048      1051      1054
     2893   2      1048      1051      1054      1056
     2894   3      1048      1051      1054      1057
     2895   2      1048      1051      1054      1055
     2896   1      1052      1051      1054      1056
     2897   2      1052      1051      1054      1057
     2898   1      1052      1051      1054      1055
     2899   1      1053      1051      1054      1056
     2900   2      1053      1051      1054      1057
     2901   1      1053      1051      1054      1055
     2902   1      1056      1054      1057      1058
     2903   1      1056      1054      1057      1059
     2904   2      1056      1054      1057      1060
     2905   2      1051      1054      1057      1058
     2906   2      1051      1054      1057      1059
     2907   3      1051      1054      1057      1060
     2908   1      1055      1054      1057      1058
     2909   1      1055      1054      1057      1059
     2910   2      1055      1054      1057      1060
     2911   1      1058      1057      1060      1061
     2912   1      1058      1057      1060      1062
     2913   2      1058      1057      1060      1063
     2914   1      1059      1057      1060      1061
     2915   1      1059      1057      1060      1062
     2916   2      1059      1057      1060      1063
     2917   2      1054      1057      1060      1061
     2918   2      1054      1057      1060      1062
     2919   3      1054      1057      1060      1063
     2920   2      1057      1060      1063      1064
     2921   2      1057      1060      1063      1065
     2922   3      1057      1060      1063      1066
     2923   1      1061      1060      1063      1064
     2924   1      1061      1060      1063      1065
     2925   2      1061      1060      1063      1066
     2926   1      1062      1060      1063      1064
     2927   1      1062      1060      1063      1065
     2928   2      1062      1060      1063      1066
     2929   1      1064      1063      1066      1067
     2930   1      1064      1063      1066      1068
     2931   2      1064      1063      1066      1069
     2932   1      1065      1063      1066      1067
     2933   1      1065      1063      1066      1068
     2934   2      1065      1063      1066      1069
     2935   2      1060      1063      1066      1067
     2936   2      1060      1063      1066      1068
     2937   3      1060      1063      1066      1069
     2938   2      1067      1066      1069      1072
     2939   1      1067      1066      1069      1070
     2940   1      1067      1066      1069      1071
     2941   2      1068      1066      1069      1072
     2942   1      1068      1066      1069      1070
     2943   1      1068      1066      1069      1071
     2944   3      1063      1066      1069      1072
     2945   2      1063      1066      1069      1070
     2946   2      1063      1066      1069      1071
     2947   2      1066      1069      1072      1073
     2948   2      1066      1069      1072      1074
     2949   3      1066      1069      1072      1075
     2950   1      1070      1069      1072      1073
     2951   1      1070      1069      1072      1074
     2952   2      1070      1069      1072      1075
     2953   1      1071      1069      1072      1073
     2954   1      1071      1069      1072      1074
     2955   2      1071      1069      1072      1075
     2956   1      1073      1072      1075      1076
     2957   1      1073      1072      1075      1077
     2958   2      1073      1072      1075      1078
     2959   1      1074      1072      1075      1076
     2960   1      1074      1072      1075      1077
     2961   2      1074      1072      1075      1078
     2962   2      1069      1072      1075      1076
     2963   2      1069      1072      1075      1077
     2964   3      1069      1072      1075      1078
     2965   2      1072      1075      1078      1080
     2966   2      1072      1075      1078      1079
     2967   1      1076      1075      1078      1080
     2968   1      1076      1075      1078      1079
     2969   1      1077      1075      1078      1080
     2970   1      1077      1075      1078      1079
     2971   1      1082      1081      1084      1085
     2972   1      1082      1081      1084      1086
     2973   2      1082      1081      1084      1087
     2974   1      1083      1081      1084      1085
     2975   1      1083      1081      1084      1086
     2976   2      1083      1081      1084      1087
     2977   2      1081      1084      1087      1088
     2978   2      1081      1084      1087      1089
     2979   3      1081      1084      1087      1090
     2980   1      1085      1084      1087      1088
     2981   1      1085      1084      1087      1089
     2982   2      1085      1084      1087      1090
     2983   1      1086      1084      1087      1088
     2984   1      1086      1084      1087      1089
     2985   2      1086      1084      1087      1090
     2986   1      1088      1087      1090      1091
     2987   1      1088      1087      1090      1092
     2988   2      1088      1087      1090      1093
     2989   1      1089      1087      1090      1091
     2990   1      1089      1087      1090      1092
     2991   2      1089      1087      1090      1093
     2992   2      1084      1087      1090      1091
     2993   2      1084      1087      1090      1092
     2994   3      1084      1087      1090      1093
     2995   2      1091      1090      1093      1096
     2996   1      1091      1090      1093      1094
     2997   1      1091      1090      1093      1095
     2998   2      1092      1090      1093      1096
     2999   1      1092      1090      1093      1094
     3000   1      1092      1090      1093      1095
     3001   3      1087      1090      1093      1096
     3002   2      1087      1090      1093      1094
     3003   2      1087      1090      1093      1095
     3004   2      1090      1093      1096      1097
     3005   2      1090      1093      1096      1098
     3006   3      1090      1093      1096      1099
     3007   1      1094      1093      1096      1097
     3008   1      1094      1093      1096      1098
     3009   2      1094      1093      1096      1099
     3010   1      1095      1093      1096      1097
     3011   1      1095      1093      1096      1098
     3012   2      1095      1093      1096      1099
     3013   1      1097      1096      1099      1100
     3014   1      1097      1096      1099      1101
     3015   2      1097      1096      1099      1102
     3016   1      1098      1096      1099      1100
     3017   1      1098      1096      1099      1101
     3018   2      1098      1096      1099      1102
     3019   2      1093      1096      1099      1100
     3020   2      1093      1096      1099      1101
     3021   3      1093      1096      1099      1102
     3022   2      1096      1099      1102      1104
     3023   3      1096      1099      1102      1105
     3024   2      1096      1099      1102      1103
     3025   1      1100      1099      1102      1104
     3026   2      1100      1099      1102      1105
     3027   1      1100      1099      1102      1103
     3028   1      1101      1099      1102      1104
     3029   2      1101      1099      1102      1105
     3030   1      1101      1099      1102      1103
     3031   1      1104      1102      1105      1106
     3032   1      1104      1102      1105      1107
     3033   2      1104      1102      1105      1108
     3034   2      1099      1102      1105      1106
     3035   2      1099      1102      1105      1107
     3036   3      1099      1102      1105      1108
     3037   1      1103      1102      1105      1106
     3038   1      1103      1102      1105      1107
     3039   2      1103      1102      1105      1108
     3040   1      1106      1105      1108      1109
     3041   1      1106      1105      1108      1110
     3042   2      1106      1105      1108      1111
     3043   1      1107      1105      1108      1109
     3044   1      1107      1105      1108      1110
     3045   2      1107      1105      1108      1111
     3046   2      1102      1105      1108      1109
     3047   2      1102      1105      1108      1110
     3048   3      1102      1105      1108      1111
     3049   2      1105      1108      1111      1112
     3050   2      1105      1108      1111      1113
     3051   3      1105      1108      1111      1114
     3052   1      1109      1108      1111      1112
     3053   1      1109      1108      1111      1113
     3054   2      1109      1108      1111      1114
     3055   1      1110      1108      1111      1112
     3056   1      1110      1108      1111      1113
     3057   2      1110      1108      1111      1114
     3058   1      1112      1111      1114      1115
     3059   1      1112      1111      1114      1116
     3060   2      1112      1111      1114      1117
     3061   1      1113      1111      1114      1115
     3062   1      1113      1111      1114      1116
     3063   2      1113      1111      1114      1117
     3064   2      1108      1111      1114      1115
     3065   2      1108      1111      1114      1116
     3066   3      1108      1111      1114      1117
     3067   2      1115      1114      1117      1120
     3068   1      1115      1114      1117      1118
     3069   1      1115      1114      1117      1119
     3070   2      1116      1114      1117      1120
     3071   1      1116      1114      1117      1118
     3072   1      1116      1114      1117      1119
     3073   3      1111      1114      1117      1120
     3074   2      1111      1114      1117      1118
     3075   2      1111      1114      1117      1119
     3076   2      1114      1117      1120      1121
     3077   2      1114      1117      1120      1122
     3078   3      1114      1117      1120      1123
     3079   1      1118      1117      1120      1121
     3080   1      1118      1117      1120      1122
     3081   2      1118      1117      1120      1123
     3082   1      1119      1117      1120      1121
     3083   1      1119      1117      1120      1122
     3084   2      1119      1117      1120      1123
     3085   1      1121      1120      1123      1124
     3086   1      1121      1120      1123      1125
     3087   2      1121      1120      1123      1126
     3088   1      1122      1120      1123      1124
     3089   1      1122      1120      1123      1125
     3090   2      1122      1120      1123      1126
     3091   2      1117      1120      1123      1124
     3092   2      1117      1120      1123      1125
     3093   3      1117      1120      1123      1126
     3094   2      1120      1123      1126      1128
     3095   3      1120      1123      1126      1129
     3096   2      1120      1123      1126      1127
     3097   1      1124      1123      1126      1128
     3098   2      1124      1123      1126      1129
     3099   1      1124      1123      1126      1127
     3100   1      1125      1123      1126      1128
     3101   2      1125      1123      1126      1129
     3102   1      1125      1123      1126      1127
     3103   1      1128      1126      1129      1130
     3104   1      1128      1126      1129      1131
     3105   2      1128      1126      1129      1132
     3106   2      1123      1126      1129      1130
     3107   2      1123      1126      1129      1131
     3108   3      1123      1126      1129      1132
     3109   1      1127      1126      1129      1130
     3110   1      1127      1126      1129      1131
     3111   2      1127      1126      1129      1132
     3112   1      1130      1129      1132      1133
     3113   1      1130      1129      1132      1134
     3114   2      1130      1129      1132      1135
     3115   1      1131      1129      1132      1133
     3116   1      1131      1129      1132      1134
     3117   2      1131      1129      1132      1135
     3118   2      1126      1129      1132      1133
     3119   2      1126      1129      1132      1134
     3120   3      1126      1129      1132      1135
     3121   2      1129      1132      1135      1136
     3122   2      1129      1132      1135      1137
     3123   3      1129      1132      1135      1138
     3124   1      1133      1132      1135      1136
     3125   1      1133      1132      1135      1137
     3126   2      1133      1132      1135      1138
     3127   1      1134      1132      1135      1136
     3128   1      1134      1132      1135      1137
     3129   2      1134      1132      1135      1138
     3130   1      1136      1135      1138      1139
     3131   1      1136      1135      1138      1140
     3132   1      1137      1135      1138      1139
     3133   1      1137      1135      1138      1140
     3134   2      1132      1135      1138      1139
     3135   2      1132      1135      1138      1140
     3136   1      1142      1141      1144      1145
     3137   1      1142      1141      1144      1146
     3138   2      1142      1141      1144      1147
     3139   1      1143      1141      1144      1145
     3140   1      1143      1141      1144      1146
     3141   2      1143      1141      1144      1147
     3142   1      1145      1144      1147      1148
     3143   1      1145      1144      1147      1149
     3144   2      1145      1144      1147      1150
     3145   1      1146      1144      1147      1148
     3146   1      1146      1144      1147      1149
     3147   2      1146      1144      1147      1150
     3148   2      1141      1144      1147      1148
     3149   2      1141      1144      1147      1149
     3150   3      1141      1144      1147      1150
     3151   2      1144      1147      1150      1152
     3152   3      1144      1147      1150      1153
     3153   2      1144      1147      1150      1151
     3154   1      1148      1147      1150      1152
     3155   2      1148      1147      1150      1153
     3156   1      1148      1147      1150      1151
     3157   1      1149      1147      1150      1152
     3158   2      1149      1147      1150      1153
     3159   1      1149      1147      1150      1151
     3160   1      1152      1150      1153      1154
     3161   1      1152      1150      1153      1155
     3162   2      1152      1150      1153      1156
     3163   2      1147      1150      1153      1154
     3164   2      1147      1150      1153      1155
     3165   3      1147      1150      1153      1156
     3166   1      1151      1150      1153      1154
     3167   1      1151      1150      1153      1155
     3168   2      1151      1150      1153      1156
     3169   1      1154      1153      1156      1157
     3170   1      1154      1153      1156      1158
     3171   2      1154      1153      1156      1159
     3172   1      1155      1153      1156      1157
     3173   1      1155      1153      1156      1158
     3174   2      1155      1153      1156      1159
     3175   2      1150      1153      1156      1157
     3176   2      1150      1153      1156      1158
     3177   3      1150      1153      1156      1159
     3178   2      1153      1156      1159      1160
     3179   2      1153      1156      1159      1161
     3180   3      1153      1156      1159      1162
     3181   1      1157      1156      1159      1160
     3182   1      1157      1156      1159      1161
     3183   2      1157      1156      1159      1162
     3184   1      1158      1156      1159      1160
     3185   1      1158      1156      1159      1161
     3186   2      1158      1156      1159      1162
     3187   1      1160      1159      1162      1163
     3188   1      1160      1159      1162      1164
     3189   2      1160      1159      1162      1165
     3190   1      1161      1159      1162      1163
     3191   1      1161      1159      1162      1164
     3192   2      1161      1159      1162      1165
     3193   2      1156      1159      1162      1163
     3194   2      1156      1159      1162      1164
     3195   3      1156      1159      1162      1165
     3196   2      1163      1162      1165      1168
     3197   1      1163      1162      1165      1166
     3198   1      1163      1162      1165      1167
     3199   2      1164      1162      1165      1168
     3200   1      1164      1162      1165      1166
     3201   1      1164      1162      1165      1167
     3202   3      1159      1162      1165      1168
     3203   2      1159      1162      1165      1166
     3204   2      1159      1162      1165      1167
     3205   2      1162      1165      1168      1169
     3206   2      1162      1165      1168      1170
     3207   3      1162      1165      1168      1171
     3208   1      1166      1165      1168      1169
     3209   1      1166      1165      1168      1170
     3210   2      1166      1165      1168      1171
     3211   1      1167      1165      1168      1169
     3212   1      1167      1165      1168      1170
     3213   2      1167      1165      1168      1171
     3214   1      1169      1168      1171      1172
     3215   1      1169      1168      1171      1173
     3216   2      1169      1168      1171      1174
     3217   1      1170      1168      1171      1172
     3218   1      1170      1168      1171      1173
     3219   2      1170      1168      1171      1174
     3220   2      1165      1168      1171      1172
     3221   2      1165      1168      1171      1173
     3222   3      1165      1168      1171      1174
     3223   2      1168      1171      1174      1176
     3224   3      1168      1171      1174      1177
     3225   2      1168      1171      1174      1175
     3226   1      1172      1171      1174      1176
     3227   2      1172      1171      1174      1177
     3228   1      1172      1171      1174      1175
     3229   1      1173      1171      1174      1176
     3230   2      1173      1171      1174      1177
     3231   1      1173      1171      1174      1175
     3232   1      1176      1174      1177      1178
     3233   1      1176      1174      1177      1179
     3234   2      1176      1174      1177      1180
     3235   2      1171      1174      1177      1178
     3236   2      1171      1174      1177      1179
     3237   3      1171      1174      1177      1180
     3238   1      1175      1174      1177      1178
     3239   1      1175      1174      1177      1179
     3240   2      1175      1174      1177      1180
     3241   1      1178      1177      1180      1181
     3242   1      1178      1177      1180      1182
     3243   2      1178      1177      1180      1183
     3244   1      1179      1177      1180      1181
     3245   1      1179      1177      1180      1182
     3246   2      1179      1177      1180      1183
     3247   2      1174      1177      1180      1181
     3248   2      1174      1177      1180      1182
     3249   3      1174      1177      1180      1183
     3250   2      1177      1180      1183      1184
     3251   2      1177      1180      1183      1185
     3252   3      1177      1180      1183      1186
     3253   1      1181      1180      1183      1184
     3254   1      1181      1180      1183      1185
     3255   2      1181      1180      1183      1186
     3256   1      1182      1180      1183      1184
     3257   1      1182      1180      1183      1185
     3258   2      1182      1180      1183      1186
     3259   1      1184      1183      1186      1187
     3260   1      1184      1183      1186      1188
     3261   2      1184      1183      1186      1189
     3262   1      1185      1183      1186      1187
     3263   1      1185      1183      1186      1188
     3264   2      1185      1183      1186      1189
     3265   2      1180      1183      1186      1187
     3266   2      1180      1183      1186      1188
     3267   3      1180      1183      1186      1189
     3268   2      1187      1186      1189      1192
     3269   1      1187      1186      1189      1190
     3270   1      1187      1186      1189      1191
     3271   2      1188      1186      1189      1192
     3272   1      1188      1186      1189      1190
     3273   1      1188      1186      1189      1191
     3274   3      1183      1186      1189      1192
     3275   2      1183      1186      1189      1190
     3276   2      1183      1186      1189      1191
     3277   2      1186      1189      1192      1193
     3278   2      1186      1189      1192      1194
     3279   3      1186      1189      1192      1195
     3280   1      1190      1189      1192      1193
     3281   1      1190      1189      1192      1194
     3282   2      1190      1189      1192      1195
     3283   1      1191      1189      1192      1193
     3284   1      1191      1189      1192      1194
     3285   2      1191      1189      1192      1195
     3286   1      1193      1192      1195      1196
     3287   1      1193      1192      1195      1197
     3288   2      1193      1192      1195      1198
     3289   1      1194      1192      1195      1196
     3290   1      1194      1192      1195      1197
     3291   2      1194      1192      1195      1198
     3292   2      1189      1192      1195      1196
     3293   2      1189      1192      1195      1197
     3294   3      1189      1192      1195      1198
     3295   2      1192      1195      1198      1200
     3296   2      1192      1195      1198      1199
     3297   1      1196      1195      1198      1200
     3298   1      1196      1195      1198      1199
     3299   1      1197      1195      1198      1200
     3300   1      1197      1195      1198      1199
